Cu  H 
 1.0000000000000000
    10.3099279403999997    0.0000000000000000    0.0000000000000000
    -5.1549651590999996    8.9286588211000009    0.0000000000000000
     0.0000000000000000    0.0000000000000000   32.0000000000000000
 Cu  H  
 144   9
Selective dynamics
Cartesian
  0.0055956206536041  0.0055920802870038 -0.0965334554305868   T   T   T
 -0.0070063953085117 -0.0087393810287796  6.2826060268764676   T   T   T
  0.0227335579462851  0.1111090817552184 12.6457640959299749   T   T   T
 -2.5738390980501338  4.4684008564117370 -0.0270653633849802   T   T   T
 -2.5575402352914534  4.4918266830712410  6.2506006270641077   T   T   T
 -2.5837258856382737  4.3897083423524732 12.7462243562803277   T   T   T
  5.1592530757701969  0.0018957993240815 -0.0398153631780636   T   T   T
  5.1521022393007829 -0.0606161726690672  6.3331897184581463   T   T   T
  5.1474595443618227  0.0129065224387933 12.6925264166781862   T   T   T
  2.5848868604173392  4.4692347935709344 -0.0389511202522720   T   T   T
  2.6039728772372230  4.4834390700759155  6.3075466646599505   T   T   T
  2.5648421925478102  4.4173203383565163 12.7134165520800035   T   T   T
 -0.0010971764188762  2.9786213279873199  2.0573118623362512   T   T   T
 -0.0777809147467482  3.0312949481081812  8.4647785672990192   T   T   T
  0.0083782447886042  2.9618271122430251 14.7888576439603678   T   T   T
 -2.5809969127565209  7.4417498763402188  2.0667619570342910   T   T   T
 -2.5762235359288339  7.4604616812347002  8.3941895490178098   T   T   T
 -2.5547674979747383  7.4319755439589335 14.8398631410160942   T   T   T
  5.1597609463751111  2.9919518138936612  2.0226055367440909   T   T   T
  5.1251285957302173  2.9756005888701167  8.4865380750261270   T   T   T
  5.1629895524768470  2.9488117437310102 14.8112464098692254   T   T   T
  2.5870060481301067  7.4442466373970309  2.0535858106375571   T   T   T
  2.5696431795999670  7.4448484786646567  8.4075300953248195   T   T   T
  2.5734992184859058  7.4206649009779415 14.8331901641376955   T   T   T
  2.5716959487864393  1.4890264707761960  4.1363922607418102   T   T   T
  2.5737977594773724  1.4984658817584222 10.5904320477268428   T   T   T
  2.5917012603525431  1.4638397785809025 16.9023660165915928   T   T   T
 -0.0291814882043733  5.9783369207026675  4.1342004487859016   T   T   T
 -0.0155958994419360  5.9539589088730276 10.5531510387396104   T   T   T
  0.0190358023629869  5.9314916094920092 16.8974452751709983   T   T   T
  7.7548029633921223  1.4930968152869799  4.1404701925077596   T   T   T
  7.7261514324685301  1.5066242102093801 10.5628774853272720   T   T   T
  7.7427750483116107  1.4685609560005644 16.9010104852244893   T   T   T
  5.1633841153525291  5.9726918416289170  4.1462290689251251   T   T   T
  5.1388463502390982  5.9322558797760321 10.5197933146639411   T   T   T
  5.1729827588235855  5.9240578029514959 16.9894456942483956   T   T   T
  3.8619231502572564  0.7479937536719184  2.0409781585986604   T   T   T
  3.8629252127091553  0.7422345152263574  8.4514004978812789   T   T   T
  3.8754386802804484  0.7258369557679923 14.8085422501519695   T   T   T
  1.2972611753390411  5.2110178045035731  2.0449285937400585   T   T   T
  1.2731259877065599  5.2390905956674949  8.4481682643338338   T   T   T
  1.2990092587381643  5.1890209282810771 14.7989345574193649   T   T   T
  9.0287554859553243  0.7442562782178184  2.0536790417803670   T   T   T
  8.9969133431903838  0.7465756841652262  8.4172583771606373   T   T   T
  9.0264633135956558  0.7404958536303525 14.8056587410094576   T   T   T
  6.4468145730063142  5.2211822318512118  2.0481979101450571   T   T   T
  6.4265598246396092  5.2468366742145669  8.4166777946541682   T   T   T
  6.4499801586472456  5.1715273470548633 14.8450259280372840   T   T   T
 -1.2979869986313042  3.7093157322008774  4.1558949781676784   T   T   T
 -1.3022020201626554  3.7279587389614250 10.5666942150058567   T   T   T
 -1.2749430658951457  3.6921494914354391 16.8933710195324771   T   T   T
 -3.8692095485513707  8.1968617661906436  4.1598244779417586   T   T   T
 -3.8671276750394368  8.2119528364232313 10.5313665071485669   T   T   T
 -3.8469405233865412  8.1601133888109398 16.9825864660366292   T   T   T
  3.8670245504354996  3.7298447625971844  4.1240607962146960   T   T   T
  3.8566607204874841  3.7276433327678213 10.5945993356491641   T   T   T
  3.8784659721210812  3.6915620785904713 16.9049518959044356   T   T   T
  1.3000972190051374  8.1951076355600456  4.1523759091333137   T   T   T
  1.2505325551781574  8.1968027363914295 10.5398236637155946   T   T   T
  1.2975292761095953  8.1640025887030880 16.9145416093905787   T   T   T
  1.2904933113174117  2.2330820051361333 -0.0951105050104711   T   T   T
  1.2739396857921650  2.2166374254380843  6.1927193082654188   T   T   T
  1.2948793367005242  2.2427272818293500 12.6994312636566224   T   T   T
 -1.2856656866247327  6.6972761987643663 -0.0201777155794053   T   T   T
 -1.3093290471304315  6.7095137455348839  6.2892097129254374   T   T   T
 -1.2326101615850458  6.7377791939958538 12.7333808870722063   T   T   T
  6.4490172517520090  2.2371676910306211 -0.0497820825172017   T   T   T
  6.5221123491651642  2.2218739584045695  6.2842510749483296   T   T   T
  6.4355678800791161  2.2148962446999048 12.6933743331297411   T   T   T
  3.8744140940376184  6.7011703258349673 -0.0316919473827250   T   T   T
  3.8803897503654863  6.7186702904904401  6.2905748147058169   T   T   T
  3.8175835703269754  6.5701002324924866 12.6903980166269363   T   T   T
  2.5688106224935967  2.9723804473761772  2.0153662923225548   T   T   T
  2.6256161835216978  3.0294966318763765  8.4899595342098397   T   T   T
  2.5859672860433061  2.9488490771914524 14.8050296908436927   T   T   T
  0.0065939748682176  7.4496313557390508  2.0552737841028557   T   T   T
 -0.0132230571733051  7.4425360218549521  8.4397976751344306   T   T   T
  0.0144650680089211  7.4291708083090544 14.8208314408493749   T   T   T
  7.7509777904625130  2.9668133363905835  2.0171294995747466   T   T   T
  7.7357327147347910  2.9728644898709691  8.4651100199996296   T   T   T
  7.7400654924235992  2.9534920317750406 14.8185865715721050   T   T   T
  5.1593144124891559  7.4644478170253974  2.0345944590427765   T   T   T
  5.1457507298833791  7.4441795297811932  8.4149774606711976   T   T   T
  5.1661215437379484  7.4148443710062644 14.9178496638204976   T   T   T
 -0.0065074595757945  1.4828307653626265  4.1468500596182380   T   T   T
 -0.0185329368113296  1.5099541631654319 10.5585849590373186   T   T   T
  0.0106756275678388  1.4676414402564473 16.8821673673237633   T   T   T
 -2.5828623252164400  5.9620147203689005  4.1647674481997470   T   T   T
 -2.5958794236070006  5.9658424096762515 10.4299239834799113   T   T   T
 -2.5679577862380651  5.9326572225804197 16.9767501287657439   T   T   T
  5.1670273672768241  1.5010122766705185  4.0478197611828692   T   T   T
  5.1489682726474033  1.4954130596231374 10.5749125529011376   T   T   T
  5.1640086191009393  1.4652247736662993 16.8926097608495382   T   T   T
  2.6123774526057031  5.9806975002902378  4.1320013177929535   T   T   T
  2.5619977340513671  5.9193669470738870 10.5271993454051920   T   T   T
  2.5888856221846188  5.9304715914409440 16.9006456662486499   T   T   T
  2.6055641869765727 -0.0142420706528532 -0.0155869853452904   T   T   T
  2.5684151359522085 -0.0097749923426221  6.2788805025545242   T   T   T
  2.5904849823770242  0.0251966420974201 12.6997751262443188   T   T   T
  0.0029858793990883  4.4954769079769692 -0.0183802217856084   T   T   T
 -0.0422496056747436  4.4691316643337959  6.3089749809763296   T   T   T
 -0.0041241268399094  4.4590632034330913 12.7021027218252787   T   T   T
  7.7175905739719459 -0.0116723557857745 -0.0205443202171624   T   T   T
  7.7542762976031305 -0.0062220227506950  6.2859697106681942   T   T   T
  7.7290912442959350  0.0382555083540676 12.7122389430982210   T   T   T
  5.1605599890895677  4.4729839253326800 -0.0475311519325188   T   T   T
  5.1254339756742482  4.5134010334789076  6.2388033434570183   T   T   T
  5.1377430103533150  4.4127263340415013 12.7096878808572100   T   T   T
  1.2893036489326801  0.7461656090623064  2.0511556919540510   T   T   T
  1.2806564444448305  0.6949852306892242  8.4444295912491647   T   T   T
  1.3044007646538915  0.7190374289495580 14.8373471536192554   T   T   T
 -1.2916551909735186  5.2056139906765360  2.0664921844357069   T   T   T
 -1.2909407887640469  5.2336110822220476  8.4060504590060106   T   T   T
 -1.2897088556788108  5.1995171485431975 14.8548809713133227   T   T   T
  6.4581802435341658  0.7488570337321885  2.0352862718101665   T   T   T
  6.4454635073800546  0.7290910296854843  8.4569906518629274   T   T   T
  6.4527301953872600  0.7224174428241726 14.8013085566360498   T   T   T
  3.8725487365991884  5.2158844665843880  2.0465562986492585   T   T   T
  3.8464836359220005  5.2376554703550875  8.4196712632577402   T   T   T
  3.8812668345306855  5.1777576869375634 14.8555566136653745   T   T   T
  1.2906421621684312  3.6937534348191385  4.1199398547739090   T   T   T
  1.2683569623647670  3.7346934590381879 10.5944406021091453   T   T   T
  1.3015582220684441  3.6972939435472165 16.8777824461506967   T   T   T
 -1.2927061395182640  8.1854047067877822  4.1551326307228811   T   T   T
 -1.2949462075674263  8.2009468142808828 10.5565961648058781   T   T   T
 -1.2463317095708137  8.1776559847247707 16.9027972255967924   T   T   T
  6.4598572737419779  3.7359077276433266  4.1155958386034435   T   T   T
  6.4295474673625757  3.7161505692310475 10.5840978982955694   T   T   T
  6.4548000605337466  3.6618565485139865 16.9042458574490659   T   T   T
  3.8739996028406640  8.1932434005722961  4.1601860577191339   T   T   T
  3.8825324143350670  8.2090373587737346 10.5005445124883980   T   T   T
  3.8432173617429566  8.1871511221781912 16.9049759802372606   T   T   T
 -1.2793299541078040  2.2330559664653356 -0.0952669683469731   T   T   T
 -1.2802793676681239  2.2248198554717220  6.2759713076707460   T   T   T
 -1.2917733066275361  2.2412979225357224 12.6877489969802202   T   T   T
 -3.8612052252069824  6.7012947356193511 -0.0302048840210516   T   T   T
 -3.8711200063919247  6.7201963803586429  6.2765267281385588   T   T   T
 -3.8805130739538605  6.6962046647449815 12.6945617335688130   T   T   T
  3.8698978414265874  2.2366796574380481 -0.0453410126383875   T   T   T
  3.7927555897615792  2.2806313763070385  6.3142698860154400   T   T   T
  3.8694686767871191  2.2179557439665571 12.7021525458545064   T   T   T
  1.2948040972086698  6.6996925018580988 -0.0341985843503657   T   T   T
  1.2893969190504406  6.7317816054417845  6.3143769353141446   T   T   T
  1.2622379747234591  6.6702220249923991 12.7166310809001430   T   T   T
  5.0841429873176045  7.4991709122055124 13.2431649013671411   T   T   T
 -3.8457644433635707  6.6723919693798406 17.8892694507001515   T   T   T
 -2.5503447333407281  5.9317865181836069 12.0893423867897045   T   T   T
  5.1277957493340320  1.4942713368635296  5.7112692157087830   T   T   T
  1.2695198891388533  2.2736601466841515  7.8703318230358370   T   T   T
  2.5923275394610639  7.4748899981120660 11.6755133580284820   T   T   T
  1.2898898960093326  5.2082816210949687  5.2706109257863476   T   T   T
  0.0054658182503849  1.4906547577100078 -0.9943018849065527   T   T   T
  6.3890982345028728  3.7329552033790168  7.3511569272124468   T   T   T
