Cu  H 
 1.0000000000000000
    10.3099279403999997    0.0000000000000000    0.0000000000000000
    -5.1549651590999996    8.9286588211000009    0.0000000000000000
     0.0000000000000000    0.0000000000000000   32.0000000000000000
 Cu  H  
 144  10
Selective dynamics
Cartesian
 -0.0214471095135506 -0.0071733969004697 -0.0679002153893621   T   T   T
 -0.0013319710294222  0.0026818831261467  6.3013833394527259   T   T   T
  0.0072753662121935  0.0553703524634229 12.6940628840428715   T   T   T
 -2.5703297021884741  4.4244509378827690 -0.0012338104100515   T   T   T
 -2.5906119191526269  4.4687928738944498  6.2948567437594463   T   T   T
 -2.5748645906345260  4.4735774293932051 12.6405426974988462   T   T   T
  5.2076478534483446 -0.0079566430395705 -0.0563089036745833   T   T   T
  5.1472231436006517  0.0099095784657244  6.2946513778599229   T   T   T
  5.1501820319112603  0.0302186035865535 12.6690547855957441   T   T   T
  2.5934358492293210  4.4696786714109678 -0.0832184248604973   T   T   T
  2.6074576793344684  4.4448907327829366  6.3172781758499541   T   T   T
  2.5858277033982118  4.3952389336423074 12.6633493415277023   T   T   T
 -0.0945785932955850  3.0286155607056586  2.1207373668916016   T   T   T
 -0.0053091292590502  2.9776770219804547  8.4154598455840404   T   T   T
 -0.0013756053941919  2.9797886424576689 14.7651043009109735   T   T   T
 -2.5736873215485900  7.4207655766795719  2.0934431435433174   T   T   T
 -2.5784967905341207  7.4427147024016929  8.4239470609199447   T   T   T
 -2.5811850932787630  7.4809946146313511 14.7817016358998892   T   T   T
  5.1684757490067295  2.9750461251494129  2.0613323568278203   T   T   T
  5.1597125455610335  2.9769937313530410  8.4149956785520263   T   T   T
  5.1508479682123536  2.9942670350889271 14.7604110462589322   T   T   T
  2.5826654605366670  7.4424985927041183  2.0608482617191819   T   T   T
  2.5772241476288245  7.4565307444792364  8.3852915904340648   T   T   T
  2.5673803712193783  7.5327486786741398 14.8123537087364898   T   T   T
  2.5770712077704823  1.4878940191966152  4.3012912912483889   T   T   T
  2.5801118023631635  1.4986224339687644 10.5500491032586687   T   T   T
  2.5659502889117998  1.5267823139058925 17.0068394413900599   T   T   T
 -0.0367813304702169  5.9646693755403639  4.1375416291609390   T   T   T
 -0.0211604758688557  5.9515928891344068 10.5168949923144037   T   T   T
 -0.0073035720343508  5.9949009040789463 16.8619617179870041   T   T   T
  7.7319110098316637  1.4926029571328747  4.1710923923338719   T   T   T
  7.7289734760039348  1.5014298407422846 10.5300536223221357   T   T   T
  7.7254861200020146  1.5350458788922370 16.8372316407121545   T   T   T
  5.1574224942765960  5.9574090724639959  4.1724761725950108   T   T   T
  5.1740734788393636  5.9162785429621279 10.4931388652160162   T   T   T
  5.1664684410677690  5.9943099037863110 16.9481383833099137   T   T   T
  3.9443269060593145  0.6763038729947949  1.9753668516454368   T   T   T
  3.8648248877721203  0.7469243695721550  8.4324382001606981   T   T   T
  3.8525612727623004  0.7781880958833413 14.7888773185087121   T   T   T
  1.2851259050231678  5.2282280471593756  2.0368379713686302   T   T   T
  1.2708740837379715  5.2027244796895014  8.4002878952832738   T   T   T
  1.2286149655521723  5.2050783361961912 14.7922947415328814   T   T   T
  9.0116997677925124  0.7366417898920741  2.0660909267891032   T   T   T
  9.0202415086837142  0.7544366756320743  8.4048510725801275   T   T   T
  9.0319880734879838  0.7793819137580115 14.7753070462499601   T   T   T
  6.4411619653113199  5.2171570269212495  2.0652382128632181   T   T   T
  6.4482621343009265  5.2097533887589673  8.4074412034757344   T   T   T
  6.4504041161108834  5.2388178748073093 14.7511989713543468   T   T   T
 -1.3242119663887741  3.7239151174946725  4.1881000195422660   T   T   T
 -1.2920489722358397  3.7240150311025930 10.5253587069391941   T   T   T
 -1.2966464086798712  3.7509610253393308 16.8241427148292466   T   T   T
 -3.8781993053964050  8.1789897752071727  4.1933866535707898   T   T   T
 -3.8287790594341753  8.2105830952369629 10.5205819763861150   T   T   T
 -3.8609920439047807  8.2235239763521992 17.0180969929918611   T   T   T
  3.8869109553114738  3.7282544772663542  4.1833168591672001   T   T   T
  3.8788549044044109  3.7060971961778879 10.5237822713482050   T   T   T
  3.8561761054175552  3.7491006137776393 16.9334594557456128   T   T   T
  1.2860098470377397  8.2011605513989032  4.1557258359532678   T   T   T
  1.2771841642140784  8.2141133536061037 10.5165654495334788   T   T   T
  1.2736010992690001  8.2293896641376048 16.8794814235168573   T   T   T
  1.3119680290037905  2.2113712119971529 -0.2598146363236782   T   T   T
  1.2785661808467559  2.2235829226734167  6.3313800378792546   T   T   T
  1.2846875964733466  2.2382279208923568 12.6627186048197693   T   T   T
 -1.2799024986487908  6.6904876435322160 -0.0705358471555289   T   T   T
 -1.3068279935778178  6.7040833892093268  6.3054090695771672   T   T   T
 -1.2992468612205594  6.7069719865720892 12.6573813910750275   T   T   T
  6.4487124877520143  2.2209172092941585 -0.0239914353986129   T   T   T
  6.4438950025995032  2.2391483169203821  6.2919438104214986   T   T   T
  6.4429741085594534  2.2424146536234715 12.6513246992958290   T   T   T
  3.8779129911646977  6.6864829068361384 -0.0198065636303966   T   T   T
  3.8763308514458710  6.7086431251624461  6.2841722476719255   T   T   T
  3.9335940459177339  6.7342820056793382 12.7572396092953788   T   T   T
  2.6044315779643790  3.0572089209473479  2.0471672824638687   T   T   T
  2.5747474070712015  2.9792959426283878  8.4299387808399331   T   T   T
  2.5723826417060942  2.9721873941552555 14.7922768219741059   T   T   T
  0.0058489346755782  7.4228856703377062  2.0430837412037723   T   T   T
 -0.0042105097305176  7.4451495665438978  8.4153500372261867   T   T   T
 -0.0162849857644475  7.4759501064649942 14.7638459043828831   T   T   T
  7.7130709264954964  2.9704497295524481  2.0742685465899218   T   T   T
  7.7297915253346297  2.9798738653341852  8.4126088413222551   T   T   T
  7.7346096724080944  3.0006157592415175 14.7346795022103958   T   T   T
  5.1654784307903183  7.4313777330018072  2.0509389115498293   T   T   T
  5.1542290176521020  7.4454921952146531  8.4015504061403856   T   T   T
  5.1936597755612199  7.4950874740410036 14.8364495712862698   T   T   T
 -0.0215988902502782  1.4846597376798982  4.2047466522929469   T   T   T
 -0.0006750649762086  1.5077144293785514 10.5344536694436712   T   T   T
  0.0005981118523341  1.5163959210349711 16.8941388251219280   T   T   T
 -2.5898115107427206  5.9527147530720352  4.1875955857883573   T   T   T
 -2.5651065215174182  5.9492220107122868 10.5285802727764040   T   T   T
 -2.5824300640036375  5.9897625409915829 16.8993874905451271   T   T   T
  5.1706457766744176  1.4897246676589002  4.1772304570560896   T   T   T
  5.1549115590225050  1.4935989513593142 10.5427382620020644   T   T   T
  5.1453050605063249  1.5340527945292348 16.9236405916882262   T   T   T
  2.6044182621242613  5.9724570838175870  4.1376846780834082   T   T   T
  2.5619964985923116  5.9489858886315821 10.3948641614171962   T   T   T
  2.5659968437026790  5.9959669445796431 16.9174803417329933   T   T   T
  2.5971523185897145 -0.0411870699036817 -0.1695624550772768   T   T   T
  2.5741077110413366 -0.0101934761031776  6.3251314917654042   T   T   T
  2.5915417714177420  0.0204283806110050 12.6660697843766297   T   T   T
  0.0059089508019980  4.4660299644711792 -0.0525734572572226   T   T   T
 -0.0426146542914417  4.4498325120918274  6.3190587824108233   T   T   T
 -0.0258768739679237  4.4643706706911690 12.6581852204392096   T   T   T
  7.7484772609854664 -0.0110072730152083 -0.0345111352937860   T   T   T
  7.7322203273453818  0.0092197812595270  6.2795775640435085   T   T   T
  7.7142323568385480  0.0551470207613413 12.6767495414243427   T   T   T
  5.1590198981061910  4.4559317073946412 -0.0095162991465373   T   T   T
  5.1604878599047561  4.4706770748826781  6.2932932732187385   T   T   T
  5.1783538536509006  4.4475128746466854 12.6612092817621225   T   T   T
  1.2632254738525444  0.6821225891857772  2.0193133760605066   T   T   T
  1.2866509492957134  0.7467284535066404  8.4300330149025147   T   T   T
  1.3120063964028064  0.7602577019503086 14.7931805979745743   T   T   T
 -1.3002962040301578  5.2243822822008106  2.0561770762198264   T   T   T
 -1.2955328353941478  5.2111003394200299  8.4091119323673436   T   T   T
 -1.3129707452110524  5.2456148568420655 14.7749077786198981   T   T   T
  6.4602360541708945  0.7418647040270808  2.0615463521568604   T   T   T
  6.4411640562592769  0.7533184172384747  8.4043717541515033   T   T   T
  6.4107141185780305  0.7887038851002556 14.7997287657635344   T   T   T
  3.8745068849351747  5.2168796682842613  2.0625292190739253   T   T   T
  3.8748353267098494  5.2086983302840570  8.3886978375261503   T   T   T
  3.9441737603536180  5.1978392944078839 14.9017537926972974   T   T   T
  1.2768217135532087  3.7040117700948318  4.1806042836563044   T   T   T
  1.2733551762226345  3.7120768916002707 10.5292328882641293   T   T   T
  1.2564328069325525  3.7886304317597599 16.8476116926023174   T   T   T
 -1.2798809717567421  8.1754492362379008  4.1900002357837254   T   T   T
 -1.2816595793576568  8.1900610563697391 10.5471101926615560   T   T   T
 -1.2538719411683288  8.2002065683179932 16.8284629981763878   T   T   T
  6.4345385037770315  3.7245700311875640  4.1735033655723477   T   T   T
  6.4502265387211493  3.7185668375058558 10.5323315130902522   T   T   T
  6.4627916429323324  3.7463832173612857 16.8022436982306900   T   T   T
  3.8659567641044914  8.1889401822725070  4.1666561140238798   T   T   T
  3.8373410091869857  8.2287436336073227 10.4981815761760053   T   T   T
  3.8182116487682940  8.2290985635341158 16.8651054261821081   T   T   T
 -1.2920984005069558  2.2211651856224153 -0.0501509449459842   T   T   T
 -1.2999775932666282  2.2335723715406872  6.3003213809165359   T   T   T
 -1.2902159205148491  2.2473195005187221 12.6449297017368121   T   T   T
 -3.8529935855424782  6.6819707425175299 -0.0683349854903991   T   T   T
 -3.8698463209835472  6.6990961124813886  6.2992916773203671   T   T   T
 -3.8229122184143791  6.6970485600804235 12.6852002314236838   T   T   T
  3.8854614573863686  2.2221119428659879 -0.0849679715955944   T   T   T
  3.8779274295239596  2.2365907523712147  6.3216004907716643   T   T   T
  3.8741797114017307  2.2347991271312315 12.6671659486539454   T   T   T
  1.3059503199340248  6.6860612956486998 -0.0402242492335606   T   T   T
  1.2820648637847658  6.7433067123605799  6.3092515130657869   T   T   T
  1.2114174925060182  6.7562420466683335 12.6450277084888789   T   T   T
  2.5995092077942541  5.9831596149848343 12.0195556915111101   T   T   T
  3.8774874422303336  2.2824445184410300 17.8447696523268888   T   T   T
  1.1803562420205469  2.3110037211090089  1.4088744237598472   T   T   T
 -2.5668491350601159  7.3528722039306089 -1.0141397732105395   T   T   T
  2.6766083291819922  1.4494208444179006  2.6563292316176041   T   T   T
  1.2909032291871962  5.2495058763820648  5.2342895184437950   T   T   T
  2.6235154307142805  5.9513026298590006 14.1491681287961750   T   T   T
  5.1371991780420148  7.4390099342077312 11.5729943856204045   T   T   T
 -3.8531077336254009  6.7072514754942745 17.8404883533452185   T   T   T
  1.2501424561083532  0.7996340217996388 17.8568184396953704   T   T   T
