Cu  H 
 1.0000000000000000
    10.3099279403999997    0.0000000000000000    0.0000000000000000
    -5.1549651590999996    8.9286588211000009    0.0000000000000000
     0.0000000000000000    0.0000000000000000   32.0000000000000000
 Cu  H  
 144  10
Selective dynamics
Cartesian
 -0.0032811839183065  0.0078070124308482 -0.1234046278287946   T   T   T
 -0.0329981646890717  0.0378496520592572  6.2718198082745609   T   T   T
 -0.0124056300689575  0.0010635354235893 12.6776802663992978   T   T   T
 -2.5659007334251185  4.4606228364597138 -0.0890440248386459   T   T   T
 -2.5543925384652590  4.4527570983737883  6.2819224618959053   T   T   T
 -2.5591468136886011  4.4714755026409634 12.7355238033674052   T   T   T
  5.1629722042615027 -0.0059358944508957 -0.0941920190720056   T   T   T
  5.1715447648825590 -0.0463472801198764  6.2863629987103673   T   T   T
  5.1908302302976637 -0.0284752238355870 12.7445500555120645   T   T   T
  2.5727737876019416  4.4647607014152779 -0.0869604799345600   T   T   T
  2.5602944629421169  4.4640418530461048  6.2882669895327199   T   T   T
  2.5756707773835683  4.4749075996229166 12.6804388970306388   T   T   T
  0.0028982111082664  2.9906075800357632  2.0408201355865172   T   T   T
  0.0094440870937989  2.9821767375736563  8.4383862991730805   T   T   T
 -0.0059366225021398  2.9882708310901509 14.8210785787188577   T   T   T
 -2.5029684383087676  7.3956133057110787  1.9513725162540390   T   T   T
 -2.6094102445246432  7.4412441771309954  8.5290337372674117   T   T   T
 -2.5755731037527760  7.4222056056160968 14.8024293869543353   T   T   T
  5.1506566260854720  2.9860853060951453  1.9861295630519906   T   T   T
  5.1265586244164876  3.0367589147170500  8.4358453422818513   T   T   T
  5.1701483789805183  2.9880646272960178 14.8298769065144693   T   T   T
  2.5686885705677072  7.4322508187367227  2.0135147708140231   T   T   T
  2.5606785791230147  7.3497400593478694  8.4811480242708548   T   T   T
  2.5762476523535844  7.4416521172983456 14.7915774871029608   T   T   T
  2.5481107646922512  1.5293160879873420  4.1012504614909382   T   T   T
  2.5385127581255915  1.5068955273835378 10.5404419462891781   T   T   T
  2.5807077466733244  1.4861332395607918 17.0823458690193881   T   T   T
  0.0161965046597744  5.9383861813148933  4.1248371733434270   T   T   T
  0.0248042122876188  5.9460884462939534 10.5710038326546165   T   T   T
  0.0049219663870218  5.9507840712851339 16.9000477105463425   T   T   T
  7.7885702181703529  1.4681964881233958  4.1113847870025957   T   T   T
  7.7735218419186651  1.4871617362484360 10.6300152068598646   T   T   T
  7.7365131500832724  1.4867338399332319 16.9118227045839227   T   T   T
  5.1517025992579626  5.9470300265382816  4.0048023688532082   T   T   T
  5.1391557809205510  5.9664606144533172 10.5712414004611155   T   T   T
  5.1548156169476780  5.9534464985565023 16.8783306611083042   T   T   T
  3.8731467061923621  0.7497286844201103  1.9661456212666995   T   T   T
  3.7692202129376784  0.7024957611450778  8.3724820929611337   T   T   T
  3.9156981565350790  0.7151123594713906 14.8141144337523567   T   T   T
  1.2913213606389458  5.2044540170560385  2.0224335789040904   T   T   T
  1.2827893068913694  5.1895419079114271  8.4227063413467143   T   T   T
  1.2870421293376888  5.2142223333875846 14.8019524677308922   T   T   T
  9.0178174153458599  0.7549303960770058  2.0112233469989320   T   T   T
  9.0682423928489921  0.7884935412615025  8.4775019528757021   T   T   T
  9.0108990309804877  0.7472010776841987 14.8049641773843543   T   T   T
  6.4546468452035306  5.1918304373474697  1.9697587025011132   T   T   T
  6.4081203686060180  5.2176128911355466  8.4368490899855928   T   T   T
  6.4453119857601013  5.2085130704786549 14.8079494749335883   T   T   T
 -1.2647477820183555  3.7304702939850620  4.1479493133534797   T   T   T
 -1.2417714089179581  3.7076664243398159 10.6129462816692701   T   T   T
 -1.2836320003779627  3.7215269257444463 16.9226221546779563   T   T   T
 -3.8846959393398635  8.2026131150928698  4.1411447247123272   T   T   T
 -3.8945098464286056  8.1900737267189001 10.5639569789170782   T   T   T
 -3.8710238625417150  8.1732497593325295 16.9035062544669259   T   T   T
  3.8478201507701728  3.7397344109643096  4.1186468804418848   T   T   T
  3.8612863292820316  3.7487793758753054 10.5758603162603819   T   T   T
  3.8721439214129809  3.7314803465009536 16.9203809114488202   T   T   T
  1.2968011570617413  8.1506675377428621  4.1228752415724479   T   T   T
  1.3148754415668493  8.1502235296036361 10.6079117752392662   T   T   T
  1.2930383745797904  8.1807492143160729 16.8957964647165966   T   T   T
  1.2889793898491002  2.2507566924578413 -0.0993431337867680   T   T   T
  1.2623541714561637  2.2625055245723065  6.2942165195173727   T   T   T
  1.2747621817122408  2.2468840650749762 12.6748383435331853   T   T   T
 -1.2718492417227547  6.6863927376541596 -0.1065930832835096   T   T   T
 -1.2194539325837650  6.6224909659450830  6.2272355041769352   T   T   T
 -1.2750684969491839  6.6756664566109958 12.7110008633282447   T   T   T
  6.4503997825367279  2.2314971779405051 -0.0810016130645707   T   T   T
  6.4583933512563894  2.2541276229642371  6.4066520493610142   T   T   T
  6.4843335576295376  2.2541070861593311 12.7624145356595804   T   T   T
  3.8511619976680604  6.6885780762877225 -0.1294678032790406   T   T   T
  3.8002603999163580  6.7221005938276317  6.3191916966769259   T   T   T
  3.8604026239641351  6.6973847059788971 12.6845768731439161   T   T   T
  2.5828919507924568  2.9908835197095454  2.0122395506202366   T   T   T
  2.5516249703734024  2.9845064867507700  8.4221853602572185   T   T   T
  2.5755858058065817  3.0445324882189437 14.7796244775272516   T   T   T
  0.0180136944704959  7.4352889493202063  2.0078039886032286   T   T   T
 -0.0085586851182779  7.3962991220907854  8.4348830147952789   T   T   T
  0.0018412350221418  7.4296735967684659 14.8151073574039405   T   T   T
  7.7498079042577004  2.9771629931145940  2.0082095372215254   T   T   T
  7.7563655543300385  2.9751899584981603  8.4435167599742353   T   T   T
  7.7452868877352889  2.9833393711714007 14.8421355718943051   T   T   T
  5.0676052844233066  7.4036980511991475  1.9331589897264465   T   T   T
  5.1310534336733857  7.4468052855263211  8.4547771543646739   T   T   T
  5.1480351416869627  7.4329944426646017 14.7841371380550868   T   T   T
 -0.0018931318830152  1.5124285242810351  4.1612639947309384   T   T   T
  0.0019601583476728  1.4915603231308101 10.5736230101752682   T   T   T
 -0.0065979489025133  1.4870356827215601 16.9186517997962653   T   T   T
 -2.5478814231713689  5.9320351427567690  4.1010601278985659   T   T   T
 -2.5737332437298899  5.9801725221648194 10.6174903023743408   T   T   T
 -2.5770243414957164  5.9503655418406254 16.8977495758108347   T   T   T
  5.1249652143340834  1.4710046149969476  4.0359677388473658   T   T   T
  5.2496531585152946  1.5220874080253131 10.7063050098961039   T   T   T
  5.1667292720858118  1.4900270514500225 16.9434398474163679   T   T   T
  2.5709361236684178  5.9489640639167600  4.1288800036034390   T   T   T
  2.5779705603607153  5.9433046221145567 10.5777857010434317   T   T   T
  2.5807298738127140  5.9529565446738069 16.8780179602783633   T   T   T
  2.5831997723484914  0.0040555737791391 -0.1310470569578511   T   T   T
  2.4967718217911523  0.0782669915740252  6.2413803702889608   T   T   T
  2.5483928460910619 -0.0305015299872753 12.6967876588560511   T   T   T
  0.0077514306383436  4.4621082968071635 -0.0746354018770157   T   T   T
  0.0085177232203472  4.4504792159038633  6.2874450371073651   T   T   T
  0.0122153557527136  4.4680687537102148 12.7005235157469141   T   T   T
  7.7373702608079729 -0.0043799617105295 -0.0761795898694962   T   T   T
  7.7224037411301829 -0.0045241655712775  6.2021858231418401   T   T   T
  7.7357635950586578  0.0015951198004366 12.7079220648921378   T   T   T
  5.1526723862014778  4.4635763951529501 -0.1040991504054146   T   T   T
  5.1436472883883280  4.4088338009834729  6.3394078520628137   T   T   T
  5.1598355613075979  4.4763877037659272 12.7015515277432556   T   T   T
  1.2870856334437515  0.8384615504667997  1.9640285491490006   T   T   T
  1.2589699760521784  0.7611301129327512  8.4276286861294079   T   T   T
  1.2248069785161515  0.7115051684442024 14.7674736516878742   T   T   T
 -1.2702439823997074  5.1949019988824192  2.0089578425372738   T   T   T
 -1.2542591782805887  5.2055113897785574  8.4135921926624668   T   T   T
 -1.2796024658516736  5.2047716888282798 14.8230962041971850   T   T   T
  6.4533113145100298  0.7326283131063566  1.9965263388544432   T   T   T
  6.4110015771153179  0.7330709546303763  8.4836985528002504   T   T   T
  6.4514815031980515  0.7492694916276462 14.8292692558673433   T   T   T
  3.8511113207133669  5.1993889803718307  1.9862518195968528   T   T   T
  3.8403410164966765  5.2043010342101992  8.4528732620636013   T   T   T
  3.8699671510379172  5.2164678966003342 14.7892826307374232   T   T   T
  1.2948584031840487  3.7319369830267046  4.1545621990634336   T   T   T
  1.3020156456311143  3.7273035887596908 10.5562150346344339   T   T   T
  1.2879689961189076  3.7281181638519034 16.9237925520243415   T   T   T
 -1.2742603587176933  8.1452950124820944  4.0841632366773846   T   T   T
 -1.2727735087089533  8.1342671214548474 10.5527275675358183   T   T   T
 -1.2850514468576155  8.1700073419190691 16.9309759029334437   T   T   T
  6.4543102933629699  3.7701670487888448  4.0855167846742750   T   T   T
  6.4372555932129014  3.7308305007866975 10.6386265879621345   T   T   T
  6.4468351818198206  3.7243614878115112 16.9146718629959736   T   T   T
  3.8476871478849706  8.1846052969409211  4.1252198666622402   T   T   T
  3.8654342372728006  8.1811449531234643 10.5885627679277299   T   T   T
  3.8677832031244517  8.1825745801742489 16.8760802463784430   T   T   T
 -1.2788015812423559  2.2357318857369179 -0.0695641428204486   T   T   T
 -1.2746247260956234  2.2542166481534909  6.3036868721334107   T   T   T
 -1.2726010189192507  2.2413015457550309 12.7268527708995585   T   T   T
 -3.8638743479237223  6.6901886047773491 -0.1357754418215499   T   T   T
 -3.8623379786417154  6.7066846629955901  6.2744951711526111   T   T   T
 -3.8745119795430609  6.6916004728791334 12.6916864767725333   T   T   T
  3.8652361567147278  2.2382927231561922 -0.0975995810634284   T   T   T
  3.8298988579795816  2.2719021696856530  6.2908111139639873   T   T   T
  3.8750516198245766  2.2789600192175379 12.7218129439993728   T   T   T
  1.2916009298392044  6.6900199143795218 -0.0797079930311186   T   T   T
  1.2873426688913538  6.6675136633571208  6.2706824057482491   T   T   T
  1.2967950065304168  6.6849473295630206 12.7005870315173297   T   T   T
  5.1236623595153628  5.9277663330873773  5.6648086289810973   T   T   T
 -3.8788177317918366  8.1833267678549770  2.4443635052829236   T   T   T
  6.4336202359147592  2.2271337608994668  4.7533792688975138   T   T   T
  5.0502728447400926  1.4913706494060341  9.0668717226958577   T   T   T
  7.7384683490392536 -0.0301610297313402  7.8840442444478693   T   T   T
 -2.5077935432329932  7.4590429001704850  6.8645821068506772   T   T   T
  2.5515181959271329  1.4943195743616466 15.3810624334820201   T   T   T
 -2.5833606894190195  4.4637685374152500  9.5674398667261880   T   T   T
  3.9101511580877797  0.7514187355636798  5.2412529940567980   T   T   T
  3.8660749328554660  0.7125564815414490 11.5519918349781907   T   T   T
