Cu  H 
 1.0000000000000000
    10.3099279403999997    0.0000000000000000    0.0000000000000000
    -5.1549651590999996    8.9286588211000009    0.0000000000000000
     0.0000000000000000    0.0000000000000000   32.0000000000000000
 Cu  H  
 144  10
Selective dynamics
Cartesian
 -0.0089578501816256 -0.0022501624163395 -0.0290113754581463   T   T   T
 -0.0006730741471630  0.0076931253611478  6.2778863169261863   T   T   T
  0.0093608389179492  0.0274568517113362 12.6096764211488370   T   T   T
 -2.5814371544278658  4.4628155098419615 -0.0490482517069058   T   T   T
 -2.5716718867250785  4.4673721522915892  6.2977916694252292   T   T   T
 -2.5603053920945840  4.4384183478253902 12.6554544097214290   T   T   T
  5.1706827764203585 -0.0130794901192661 -0.0330433037213582   T   T   T
  5.1638571862122955 -0.0059464951727535  6.3044903576153404   T   T   T
  5.1313076012242389 -0.0550259651265952 12.7401968025712442   T   T   T
  2.5716321417177137  4.4717221904895297 -0.0150891283631687   T   T   T
  2.5728237051236476  4.4678659045883125  6.2919336397197219   T   T   T
  2.5447566288494836  4.4449673856288134 12.6490118084550200   T   T   T
 -0.0001222569596103  2.9817131706176236  2.0899166071286688   T   T   T
 -0.0029854245753848  2.9782521848598900  8.4163425943087571   T   T   T
 -0.0124537977050624  2.9715427918692154 14.7729946485539365   T   T   T
 -2.5850518275586163  7.4281213269076218  2.0632780045930756   T   T   T
 -2.5856142138064069  7.4376981987820638  8.3988506199322028   T   T   T
 -2.5603674120727757  7.4391140153872914 14.8062836376221618   T   T   T
  5.1611647352526706  2.9909836929155547  2.0832067172573407   T   T   T
  5.1534909297081617  2.9863410598123461  8.3996481168246540   T   T   T
  5.1297184148513519  2.9324685508254977 14.7853947484737578   T   T   T
  2.5771837209089501  7.4383929700585343  2.0749133881486501   T   T   T
  2.5750709161647198  7.4412046277586166  8.3818432276175603   T   T   T
  2.4923411504181425  7.4137762272222032 14.8698008690553554   T   T   T
  2.5111575293702413  1.5298046760646644  4.2045643756660960   T   T   T
  2.5342732537910679  1.5029511937690672 10.5052883149518994   T   T   T
  2.5520815369125613  1.4665939124312137 16.8791228032134306   T   T   T
  0.0047889314994701  5.9456345934322128  4.1738326772074261   T   T   T
 -0.0111637658679067  5.9362589966314818 10.5248967843167733   T   T   T
 -0.0126672773269206  5.9443204710799664 17.0079192227300027   T   T   T
  7.7495654198039858  1.4886317683044610  4.1862240753138629   T   T   T
  7.7595819611397365  1.5055746198143094 10.5035281184384868   T   T   T
  7.7160481199637188  1.4626502955550551 16.9326099278458244   T   T   T
  5.1522054202699579  5.9565596063267785  4.1738706754921582   T   T   T
  5.1511289408834458  5.9483309867335414 10.4656895278416844   T   T   T
  5.1520458517426322  5.9253719439531318 16.9489109489650183   T   T   T
  3.8663005476087204  0.7391861371877739  1.9546702093096564   T   T   T
  3.8581981087495270  0.7405054050642608  8.3895953804228114   T   T   T
  3.8402382246662561  0.7158348768160691 14.8194221004578655   T   T   T
  1.2898005692176520  5.2126170051989149  2.0818529993928423   T   T   T
  1.2805281003744795  5.2050853378587192  8.4010821197646983   T   T   T
  1.2430673522432516  5.1961828148832128 14.7724011640447532   T   T   T
  9.0201941869208362  0.7416772332335549  2.0787812559216405   T   T   T
  9.0196502755639880  0.7485890951868978  8.3918528504678545   T   T   T
  8.9909705662426926  0.7723372108817419 14.7790736972984664   T   T   T
  6.4424133150326881  5.2104506676154188  2.0879029487064646   T   T   T
  6.4429585691160156  5.2113641518902849  8.3851398585951529   T   T   T
  6.4513353942093588  5.1092970857342719 14.8027899431500209   T   T   T
 -1.2835421077884928  3.7273679886366926  4.1937213767245085   T   T   T
 -1.2890500115271939  3.7208271935961319 10.5276659733006070   T   T   T
 -1.3305512752148405  3.6864132014973054 16.8404676737224221   T   T   T
 -3.8802662930427925  8.1791111347355923  4.1664403275602950   T   T   T
 -3.8891434601926229  8.1772120135417001 10.4950589647426415   T   T   T
 -3.8669190849651778  8.1864162224991865 16.9254438305187449   T   T   T
  3.8643458261473844  3.7450973704873505  4.1853417149475431   T   T   T
  3.8526853936252770  3.7295802680104502 10.5032247293736809   T   T   T
  3.8722684401859402  3.6586868301556708 16.9154076818933703   T   T   T
  1.3067313122238602  8.1796780181482749  4.1719108709660313   T   T   T
  1.2922108399382297  8.1404282339035667 10.5007690796847513   T   T   T
  1.2580829574273329  8.2068618875073778 17.0446173967863608   T   T   T
  1.2839647614431131  2.2390644009429299 -0.0192427176255951   T   T   T
  1.2818489990666269  2.2386748112638672  6.3045018087552185   T   T   T
  1.2670970309749470  2.2386048921287673 12.6674254930262684   T   T   T
 -1.2870768030969755  6.6962084019275316 -0.0083984643540164   T   T   T
 -1.2854791846165687  6.6940701494805754  6.3015375912118445   T   T   T
 -1.2904105645343202  6.6542755301553278 12.6565714124660929   T   T   T
  6.4429502997261459  2.2350714559953255 -0.0511509988933138   T   T   T
  6.4539782667155530  2.2417687043245382  6.3075380096676641   T   T   T
  6.4466474152753088  2.2496194399082627 12.6988538790527432   T   T   T
  3.8613015745532704  6.6970319135531131 -0.0112756696567671   T   T   T
  3.8625481517744849  6.6989807107457624  6.2751027075935903   T   T   T
  3.8305390519234970  6.7382382462435224 12.5172143625526182   T   T   T
  2.5698817018140829  2.9947066496433270  2.0691106715948564   T   T   T
  2.5692574368641927  2.9783846625060320  8.4112639821617314   T   T   T
  2.5354006940918596  2.9551074861047444 14.8058591886708335   T   T   T
  0.0114083551376592  7.4257912278069265  2.0677333912723230   T   T   T
 -0.0037769705286178  7.4377240880163473  8.4107197953153943   T   T   T
 -0.0120378803126995  7.4114302618826606 14.7939311231037607   T   T   T
  7.7342651749337117  2.9794007030002647  2.1013237205760329   T   T   T
  7.7299845440688806  2.9808653174715580  8.4119564449172728   T   T   T
  7.7161710775298626  2.9260079004187940 14.7881374994081440   T   T   T
  5.1496264851236591  7.4392747164193551  2.0698123807571900   T   T   T
  5.1529893781162679  7.4410277819574704  8.3666188251995965   T   T   T
  5.0687358179312856  7.4870020014071361 14.9726358074885511   T   T   T
 -0.0093885374580293  1.4928970329549256  4.1765741313755989   T   T   T
 -0.0088453108393394  1.4945021076084783 10.5230967051499000   T   T   T
  0.0077211803603664  1.4804296047549041 16.8307065783202852   T   T   T
 -2.5763116468746481  5.9470749261836247  4.1809567475439957   T   T   T
 -2.5755537453417103  5.9343674250767204 10.5039045789635264   T   T   T
 -2.6071183771875415  5.9161251522821168 16.8822525936324475   T   T   T
  5.2315910550091163  1.5286864852002608  4.2198756633993515   T   T   T
  5.1459215001886500  1.5298075099709310 10.4661427758625916   T   T   T
  5.1081977437576560  1.4983259771501176 16.8872440592459157   T   T   T
  2.5800118003449555  5.9540861210747957  4.1681912020113829   T   T   T
  2.5533913039871599  5.9446612357194839 10.4844850129974727   T   T   T
  2.5604638657693095  5.8916258300978255 16.9572601979895197   T   T   T
  2.5643573002272646 -0.0090768392977183 -0.0480628409624202   T   T   T
  2.5664973007861636 -0.0013908404713973  6.2991711911747794   T   T   T
  2.5423497804365072 -0.0184399159826538 12.6792491676691750   T   T   T
  0.0014052034812284  4.4666697682185195  0.0020777636017265   T   T   T
 -0.0000968778649902  4.4678626731036459  6.2980745577196728   T   T   T
 -0.0101446600384637  4.4524460020149377 12.6557165939436995   T   T   T
  7.7363797638631207 -0.0055917632335443 -0.0141661707830768   T   T   T
  7.7356461774260827  0.0024959492166191  6.2828719685741179   T   T   T
  7.7119808302172670 -0.0052339121260658 12.6675216002950251   T   T   T
  5.1540752406054757  4.4672471568710179 -0.0642236451468945   T   T   T
  5.1551032263732219  4.4694679754309767  6.2884433289423489   T   T   T
  5.1927566675443595  4.4020589198633093 12.6012931653076929   T   T   T
  1.2731102183631995  0.7442666937802057  2.0538049595434020   T   T   T
  1.2799223132229283  0.7433108189174891  8.4054913922849419   T   T   T
  1.2810290150925159  0.7465672501112310 14.7728694326709906   T   T   T
 -1.3051675866523353  5.1979061423109609  2.0652396280569616   T   T   T
 -1.2912839872145612  5.2071972634027937  8.4066732390741432   T   T   T
 -1.2776213885074434  5.1927838409602884 14.8063354029957281   T   T   T
  6.4611287769161398  0.7615998427056813  2.0479422324073604   T   T   T
  6.4448009606995909  0.7416839620903118  8.3933851743163377   T   T   T
  6.4022274737500480  0.7199684744807570 14.8299075018470532   T   T   T
  3.8815369223938094  5.2023360665120988  2.0535244755838744   T   T   T
  3.8585989661811646  5.2108020719977057  8.3850187368937750   T   T   T
  3.8116910291692281  5.1637422868087350 14.9519076609138857   T   T   T
  1.2847440890989228  3.7348249111088005  4.1844118572512610   T   T   T
  1.2808461289118747  3.7226462384108108 10.5357197534510636   T   T   T
  1.2537929309147193  3.7111641976326237 16.9166808255094914   T   T   T
 -1.2867990979639121  8.1174687138778019  4.2008495228079088   T   T   T
 -1.3087960881765677  8.1373651069012336 10.5052828978233705   T   T   T
 -1.3093350455822939  8.1549822778309036 16.9168976601156125   T   T   T
  6.4530962621953085  3.7376256783848514  4.1945128539107843   T   T   T
  6.4458636846365067  3.7371629777676909 10.5149222259348178   T   T   T
  6.4273364107557605  3.6879419113386573 16.8755561582340690   T   T   T
  3.8685368558757838  8.1862418432084869  4.1696219337194353   T   T   T
  3.8721507922170897  8.1871303236920578 10.4668960385032452   T   T   T
  3.8280343821263112  8.1802390883524687 17.0078834127904308   T   T   T
 -1.2695974206844232  2.2206601868109503  0.0202270475732754   T   T   T
 -1.2861919645895163  2.2396571380489183  6.2983602407329347   T   T   T
 -1.2837127539161923  2.2476105729649345 12.6551848107062046   T   T   T
 -3.8722574391537434  6.7181408254757775 -0.0027199861517301   T   T   T
 -3.8636563332057734  6.6981578592353319  6.2745630681025775   T   T   T
 -3.8425641967285644  6.6834026552348949 12.5339612377651086   T   T   T
  3.8399450601183336  2.2390304797618139 -0.0180927182323606   T   T   T
  3.8651617209854656  2.2462121907978019  6.3087550725520360   T   T   T
  3.8334127084381984  2.2379305251889061 12.7004656948267591   T   T   T
  1.2910524424679191  6.6931383395566630 -0.0166692946305253   T   T   T
  1.2869405632974595  6.6959379169810473  6.2860750507964278   T   T   T
  1.2479565681178717  6.6667917099780771 12.6450868994539718   T   T   T
  3.9383308412686890  5.2747229375862803 13.3130604686713543   T   T   T
 -4.0030725099368381  6.6737518994888081 14.2114550556886154   T   T   T
  3.8777288252478699  0.7630693791454967  3.6114879802052489   T   T   T
  1.2902923832374327  5.1411813697822497 17.8701553816593481   T   T   T
  2.5672254308047884  8.9408421220921461 17.8983048521564818   T   T   T
  3.8298379471093402  0.7252406862446382 11.5914181319290019   T   T   T
 -0.0691581929651738  7.4773559722354497 17.8779481654727590   T   T   T
  6.4434157688979576  3.7164071823324121 -0.9471192459300382   T   T   T
  3.8365286187319798  8.0878353181038776 13.7638638057694784   T   T   T
  6.4585243188243782  0.7683609050973060 11.5929157285684301   T   T   T
