Cu  H 
 1.0000000000000000
    10.3099279403999997    0.0000000000000000    0.0000000000000000
    -5.1549651590999996    8.9286588211000009    0.0000000000000000
     0.0000000000000000    0.0000000000000000   32.0000000000000000
 Cu  H  
 144  10
Selective dynamics
Cartesian
 -0.0231134854583414 -0.0141506242303179  0.0563601439850296   T   T   T
 -0.0060022589886105  0.0039499506960959  6.3268770701961401   T   T   T
 -0.0262488901597872 -0.0058788724848756 12.6635169208065168   T   T   T
 -2.5800044715851271  4.4553154625023517  0.0077317901372695   T   T   T
 -2.5774402050180427  4.4428312063861961  6.3091804766464721   T   T   T
 -2.5894650455249604  4.3984446303131746 12.6306856288777745   T   T   T
  5.1867668476559317 -0.0109022542563760 -0.0046800642542268   T   T   T
  5.1588447235887624  0.0040371984384746  6.3274098080378289   T   T   T
  5.1517467402528334  0.0082476982139727 12.6575821047624721   T   T   T
  2.5806581656196101  4.4859036950593154  0.0285324415453336   T   T   T
  2.5787373842481496  4.4635417157703161  6.3019137333903634   T   T   T
  2.5582083556867894  4.4436414174935797 12.6304207636512924   T   T   T
  0.0272820359041154  2.9556392114687031  2.0920396126305403   T   T   T
  0.0055900072999247  2.9576857792417823  8.4272430859999563   T   T   T
 -0.0080638960542895  2.9532919433619198 14.7835348923533889   T   T   T
 -2.5784899218707387  7.5545611201527789  2.0464544177586323   T   T   T
 -2.5826795534871025  7.5371966320064399  8.3931973470769332   T   T   T
 -2.6881226278987520  7.5205929405865977 14.8426290582744933   T   T   T
  5.1397538907304599  2.9509005595678670  2.0704243517358125   T   T   T
  5.1449997734388075  2.9616331883121343  8.4246773255407614   T   T   T
  5.1237700491496989  2.9543904889324293 14.7805810387279646   T   T   T
  2.5762861721907555  7.4536127385338089  2.0942494686094828   T   T   T
  2.5730407255056891  7.4402782027448051  8.4412214744327017   T   T   T
  2.5846396123394997  7.4241994799679842 14.8615891557304032   T   T   T
  2.5809917057392289  1.4918549259859675  4.2087995282935537   T   T   T
  2.5661809736687764  1.4878115975873873 10.5258255168658987   T   T   T
  2.5869920473767491  1.4898831386890181 16.8009599785216501   T   T   T
  0.0200950760246740  5.9548856053311727  4.2097688937955331   T   T   T
  0.0205617802594370  5.9390119976799536 10.5473809864537298   T   T   T
  0.0004556327548288  5.9461324047052013 16.9394728148936977   T   T   T
  7.7357234484058264  1.4865837895090066  4.2269920668435566   T   T   T
  7.7232800484175499  1.4743146777016711 10.5631752382703485   T   T   T
  7.6988965257289381  1.4983300160044029 16.9021354027201873   T   T   T
  5.1350230691481631  5.9526816071142763  4.2139602729058563   T   T   T
  5.1187834419686258  5.9410241728256441 10.5480877447963888   T   T   T
  5.1117693033788694  5.9177942975049413 16.8695897979685192   T   T   T
  3.8869128869077061  0.7556096728035022  2.1100180798969412   T   T   T
  3.8713906980812380  0.7571584834040779  8.4245681063666744   T   T   T
  3.8701236268665684  0.7529847581089267 14.7660609756642884   T   T   T
  1.3021591470981606  5.2076928223635148  2.1100201803872274   T   T   T
  1.3029867976623548  5.2050459028718388  8.4220236531356143   T   T   T
  1.3009216451630434  5.1900184010617201 14.7407408810551974   T   T   T
  9.0071441507215475  0.7410465706470218  2.1087943472835446   T   T   T
  9.0139072028654752  0.7383644808314717  8.4449503416143035   T   T   T
  8.9918721219432847  0.7430721688630400 14.7752661995019743   T   T   T
  6.3732170945021078  5.1595914807213967  2.0863538978370779   T   T   T
  6.3677773295474802  5.1628120750571513  8.4043044481381965   T   T   T
  6.3476982343161774  5.1771070869674229 14.8120029239971256   T   T   T
 -1.2784703108064772  3.6982478183578569  4.2076359239591996   T   T   T
 -1.2864742064685606  3.6933913082699386 10.5506648405920131   T   T   T
 -1.3246101584722452  3.6979397478247282 16.8397608536590369   T   T   T
 -3.8748788092518951  8.1969169361830048  4.2170360429220413   T   T   T
 -3.8876421321741867  8.1933644696914509 10.5479115464086313   T   T   T
 -3.8926815606352396  8.1798225439907561 16.9162632534726320   T   T   T
  3.8710333905763172  3.7188578587488954  4.1997052370301855   T   T   T
  3.8502452978612212  3.7076804161801147 10.5249766355728500   T   T   T
  3.8683631873358477  3.6981202430152575 16.8806036548389855   T   T   T
  1.2904810615545279  8.1824804533607356  4.2196357531576218   T   T   T
  1.2812008779008681  8.1775332374144174 10.5591672734397530   T   T   T
  1.2870656449813080  8.2244885292852246 16.9342211702773042   T   T   T
  1.2918933409065703  2.2259775596218785 -0.0352034803597182   T   T   T
  1.2886812176535751  2.2332395497782254  6.3087625955753888   T   T   T
  1.2719739027163939  2.2268485983392488 12.6435879586603424   T   T   T
 -1.2845118157632784  6.6965662129076486  0.0086996896523822   T   T   T
 -1.2722333541358144  6.7039877287136544  6.3094207538899711   T   T   T
 -1.2608547113638302  6.7091776477102192 12.5776594535071791   T   T   T
  6.4401233871954764  2.2239769480075697 -0.0174931782835389   T   T   T
  6.4433405190260151  2.2262611499031153  6.3311641117905886   T   T   T
  6.4235104894328625  2.2183959246701339 12.6616540386178542   T   T   T
  3.8694536210891664  6.6955568278806679  0.0251522821440090   T   T   T
  3.8580497860330718  6.6985069485649831  6.3232108779832092   T   T   T
  3.8346244104867520  6.6880237965945248 12.6658795364505252   T   T   T
  2.5801328623751600  2.9777674491176147  2.1150632128239044   T   T   T
  2.5749097330090307  2.9746619640638872  8.4105263178945115   T   T   T
  2.5533338783472783  2.9746955466441816 14.7668977356462747   T   T   T
  0.0155897796272313  7.4557269980252681  2.0959275945295723   T   T   T
  0.0138501214160994  7.4474662016414932  8.4330444912694151   T   T   T
  0.0981930088075190  7.4755960367926217 14.8588354122292330   T   T   T
  7.7231074623524538  2.9527756364569977  2.1006244320841043   T   T   T
  7.7295652671353121  2.9515454495624702  8.4379786459446269   T   T   T
  7.7191297350247616  2.9426002961439366 14.7709524124353191   T   T   T
  5.1411626261605310  7.4445872594555071  2.1146002753637330   T   T   T
  5.1316639490250973  7.4472500339184533  8.4313275989495668   T   T   T
  5.1037814632697183  7.4349849851103613 14.7700515401131955   T   T   T
 -0.0066561947110573  1.4889822400734485  4.2174384392119073   T   T   T
 -0.0093474831039092  1.4788876221791307 10.5455680243025451   T   T   T
 -0.0057704719934413  1.4793882944643868 16.8886993416948386   T   T   T
 -2.5773813262434619  5.9496629538848795  4.2792193208605633   T   T   T
 -2.5904556663898837  5.9418081317664564 10.5927628947500558   T   T   T
 -2.5953919060057293  5.9449429191834033 16.8736771725414130   T   T   T
  5.1571197436010561  1.4927537777486128  4.2219651001305945   T   T   T
  5.1438925606484140  1.4829117260208371 10.5431048806631935   T   T   T
  5.1418040520059103  1.4720165985513203 16.9009441116197969   T   T   T
  2.5780190433757033  5.9561552654118355  4.2045944914861657   T   T   T
  2.5686079109979536  5.9443520953590214 10.5400665897748755   T   T   T
  2.5541540181734592  5.9325884410436291 16.9907602417679620   T   T   T
  2.5792935611925256  0.0096663645785888 -0.0307094791452856   T   T   T
  2.5774258620243180  0.0103735292585629  6.3022785145392204   T   T   T
  2.5564905847370603  0.0145586096420643 12.6417060897710751   T   T   T
  0.0105280971436961  4.4557517904532409  0.0064348351039228   T   T   T
  0.0078030852709978  4.4584598590574700  6.3012801617185499   T   T   T
  0.0022735837550201  4.4330943412779646 12.6469788603500088   T   T   T
  7.7307136930080347  0.0081578813138272 -0.0314396634916510   T   T   T
  7.7304496379125176 -0.0007082559853924  6.3310861219286432   T   T   T
  7.7228224395351965 -0.0234059423159652 12.6737469543160337   T   T   T
  5.1481313805253421  4.4588666799839265  0.0145093044454227   T   T   T
  5.1503959449397883  4.4605347170035490  6.3050202457821571   T   T   T
  5.1101875598648085  4.4317093778751300 12.6427823427800998   T   T   T
  1.2796936054862293  0.7605285210842829  2.1280317492632932   T   T   T
  1.2759361773142759  0.7562615580766130  8.4255640403376582   T   T   T
  1.2556931012395767  0.7560655909453654 14.7336255331374346   T   T   T
 -1.2119909306853491  5.1530264177203762  2.0844910334145776   T   T   T
 -1.2073070698239918  5.1539289637368526  8.3981771599992179   T   T   T
 -1.2612818104766745  5.1632333799880481 14.8016348657055445   T   T   T
  6.4480058873233697  0.7443598318533787  2.1511188615452905   T   T   T
  6.4422489024205971  0.7392653676840545  8.4467967832791864   T   T   T
  6.4436759487745139  0.7476391102023552 14.7346634350084074   T   T   T
  3.8547807211875229  5.2084283014556121  2.1102037408915746   T   T   T
  3.8487305586832563  5.2052410950662056  8.4208181537691900   T   T   T
  3.8197357593690442  5.1931980577335963 14.7285666127201207   T   T   T
  1.2890912729302531  3.7193308979099724  4.2020119167923049   T   T   T
  1.2835379925153680  3.7089151386292114 10.5226912083333843   T   T   T
  1.2484281861242261  3.7003668050753515 16.8833706151974106   T   T   T
 -1.2783654611907092  8.1980068503636030  4.2132476248363657   T   T   T
 -1.2907041543603208  8.2034532497701314 10.5406216255459579   T   T   T
 -1.3203190441867143  8.1656594812913017 16.8824032306359157   T   T   T
  6.4323237561879916  3.6985181090179786  4.2077840155121224   T   T   T
  6.4209892962946888  3.6925869605948831 10.5465955351931502   T   T   T
  6.4545329774740967  3.7209435685453141 16.8367543688277479   T   T   T
  3.8619986594639331  8.1875496306762034  4.2143292869778541   T   T   T
  3.8522078932507786  8.1772801269479913 10.5566801329537707   T   T   T
  3.8750771674578477  8.1970287002269071 16.9124022691279450   T   T   T
 -1.2620205654918073  2.2433364928561104  0.0409388643024214   T   T   T
 -1.2875999062896561  2.2272414169903048  6.3322986906205632   T   T   T
 -1.2976273985433282  2.2100936048769131 12.6678052635768097   T   T   T
 -3.8724611567892269  6.6975506946104817  0.0038969780167618   T   T   T
 -3.8841829658445977  6.7045227602243438  6.3091096293077493   T   T   T
 -3.9295715970462766  6.7107648225616110 12.6283316710645082   T   T   T
  3.8386953054029078  2.2438273485462865 -0.0269820325862030   T   T   T
  3.8661381838156013  2.2348904131099530  6.3095367948224101   T   T   T
  3.8433813853598768  2.2183836205254130 12.6531864783820431   T   T   T
  1.2877094326148255  6.6638721886843664  0.0244433907263647   T   T   T
  1.2938935085234233  6.6963528777107459  6.3236166236909801   T   T   T
  1.3053658570042055  6.6924038746960877 12.6751052642249391   T   T   T
 -2.5677145655652289  5.9845206748372615  2.5861369732803863   T   T   T
 -2.5661484940194339  5.9607220652869080  8.9164949443668924   T   T   T
  6.4406441415344799  0.7507352426981916 -0.9394301293936742   T   T   T
  6.4248747404671693  0.7588813033985591 17.8430217880804385   T   T   T
  1.2264129246766220  5.1500810366963252 17.8319577413267290   T   T   T
  3.8951982841074355  5.1791564847443761 17.8124366770276588   T   T   T
 -1.2605768818495797  6.8107900495064611 14.2740161126425420   T   T   T
  0.0043014367853062 -0.0005767677660571 17.8153153196888745   T   T   T
  2.5773208708484092  1.4732241258683323 -0.9396083706674413   T   T   T
 -2.8980598210801833  5.7463333088455162 13.6466563754879644   T   T   T
