Cu  H 
 1.0000000000000000
    10.3099279403999997    0.0000000000000000    0.0000000000000000
    -5.1549651590999996    8.9286588211000009    0.0000000000000000
     0.0000000000000000    0.0000000000000000   32.0000000000000000
 Cu  H  
 144  10
Selective dynamics
Cartesian
  0.0008578798825615  0.0066017034840299 -0.0416905427730873   T   T   T
  0.0013608434737100 -0.0640150818163821  6.3302790424621262   T   T   T
 -0.0122437772102065 -0.0044222376663825 12.6913539124068819   T   T   T
 -2.5795332782479323  4.4694851411518561 -0.0215016560920907   T   T   T
 -2.6427871298963761  4.4406804749735560  6.2537056087093168   T   T   T
 -2.5854345912826564  4.4500350884261630 12.8326526647382160   T   T   T
  5.1563570151057903  0.0068618320833731 -0.0961874483100920   T   T   T
  5.1711415360372710  0.0025160582641209  6.2827506063146537   T   T   T
  5.1359726164246133 -0.0237644678126974 12.7159079300368685   T   T   T
  2.5824348186268318  4.4623797060447714 -0.1969811294421123   T   T   T
  2.5846838617483625  4.4910760293747147  6.2823536398250077   T   T   T
  2.4857173544844344  4.4144082908300621 12.7257283459381920   T   T   T
 -0.0090289661764381  2.9933258031045873  2.0178367245716715   T   T   T
  0.0115696440822807  2.9651747342977881  8.4491058776696697   T   T   T
 -0.0350086897415312  2.9528319140016284 14.7960436389105983   T   T   T
 -2.5732345529240530  7.4523333334899347  2.0642906844114344   T   T   T
 -2.5940992857609744  7.4442503731130483  8.4400297879234962   T   T   T
 -2.6024970580057638  7.4159837071411419 14.8122761465783608   T   T   T
  5.1669475197153272  2.9775938794939902  2.0483078704939817   T   T   T
  5.1945695494068698  3.0712365352118778  8.4133045389378651   T   T   T
  5.1326558502109156  2.9238324804440872 14.8509256273072250   T   T   T
  2.5712550899612481  7.4599141914599123  2.0599651594872137   T   T   T
  2.5857480446833594  7.4475629015888556  8.4288828801953759   T   T   T
  2.5346777094047837  7.4267384998791313 14.8296708069047476   T   T   T
  2.5884530265584589  1.4977855581882140  4.1460285816353997   T   T   T
  2.5614075176464017  1.4757937201205800 10.5890663667539222   T   T   T
  2.5490011761389373  1.4463617061801846 16.9093730304303982   T   T   T
 -0.0018454339875771  5.9836533415033406  4.1627800277287728   T   T   T
  0.0057647425008091  5.9538180148116862 10.5870955148342727   T   T   T
 -0.0331611751770352  5.9161349222623469 16.9817410425175446   T   T   T
  7.7222511099816931  1.4930274227559373  4.1379654487849118   T   T   T
  7.7525598872041535  1.4476035179008053 10.6044447757743008   T   T   T
  7.7000168809678780  1.4438224794339110 16.9047683009383043   T   T   T
  5.1593799050537408  5.9701912487238555  4.1809310491670590   T   T   T
  5.1671991793380876  5.9965583786680101 10.5210942355216748   T   T   T
  5.1480495717460295  5.9344451855420841 16.9591670490079558   T   T   T
  3.8722896176310688  0.7453388561120314  2.0436085431118829   T   T   T
  3.8598768583778980  0.6415550306359407  8.4770492732178422   T   T   T
  3.8404248735581481  0.7112918079593952 14.8099956820283101   T   T   T
  1.2111582577646549  5.2666233101019673  2.0894606487866714   T   T   T
  1.3041684684515968  5.2099782560608734  8.4380220610849737   T   T   T
  1.2411533482583879  5.1930013933260959 14.8436714465799540   T   T   T
  9.0104271029033285  0.7472600644550291  2.0309446884927804   T   T   T
  9.0300212949168088  0.7371723215101006  8.4419108444077207   T   T   T
  8.9914834294995423  0.7151247561237349 14.8007850973190944   T   T   T
  6.4492257309505527  5.2174486655221992  2.0649568759478658   T   T   T
  6.4308760916527214  5.2508883226216296  8.4087784378051893   T   T   T
  6.4264138571551594  5.1919564729213308 14.8600765021496439   T   T   T
 -1.2987583988025055  3.7355019159080509  4.1240041680104245   T   T   T
 -1.2170729970395384  3.6663712673289686 10.5526843643153114   T   T   T
 -1.3211935976948246  3.6828997887769668 16.9049870205260326   T   T   T
 -3.8549267073427744  8.1899893987616732  4.1569043128957786   T   T   T
 -3.8759077443513719  8.1931730196834085 10.5750523701368024   T   T   T
 -3.8917441170197904  8.1591774525871461 16.9057394873078266   T   T   T
  3.8749397752342110  3.7331634012200765  4.1684446491590315   T   T   T
  3.8325347171919559  3.6942226428350597 10.5680988191570435   T   T   T
  3.8389037658207008  3.6538542776120155 16.9559492373744511   T   T   T
  1.2873229623882421  8.1928823632884722  4.1671795477666373   T   T   T
  1.2792072136196802  8.1761220767327494 10.5812759710374600   T   T   T
  1.2546463251036406  8.1398464313159273 16.9895494904566746   T   T   T
  1.2861479472053585  2.2279887167131096 -0.0803850536314360   T   T   T
  1.3428735833236469  2.2700236241235365  6.3233531199237820   T   T   T
  1.2637155120604184  2.2095355311370488 12.6939774655732638   T   T   T
 -1.2879613476356599  6.7017327141378251 -0.0212444235359347   T   T   T
 -1.2818564313689118  6.7875490062791162  6.2691086098361151   T   T   T
 -1.3027353787961156  6.6925158360330581 12.7187621650000295   T   T   T
  6.4438593399539252  2.2300083647132749 -0.0982410182689668   T   T   T
  6.4479784618910800  2.2283994504761653  6.2475027811676362   T   T   T
  6.4211591575764757  2.1815152981877546 12.7547881530053626   T   T   T
  3.8676762890402872  6.7066855870970876 -0.0473286404746552   T   T   T
  3.8661559522043580  6.7069338780856302  6.2966146591596930   T   T   T
  3.8434488768635422  6.7683208100023391 12.7036826264522134   T   T   T
  2.6013990433950669  2.9149980064866998  2.0270739887599269   T   T   T
  2.5355764049737068  3.0077654762237187  8.4643427864242522   T   T   T
  2.5484046155407802  2.9297893981503687 14.8249137656691001   T   T   T
 -0.0051143726322429  7.4838378998130759  2.0359364631412822   T   T   T
  0.0188522911593658  7.4346267564282691  8.4561993909749908   T   T   T
 -0.0290552417999096  7.4155147351308326 14.8249093782010917   T   T   T
  7.7138738591358056  2.9697394858227382  2.0222558115626379   T   T   T
  7.7621940160245364  2.9729859022051941  8.3956769573770202   T   T   T
  7.7063464680756821  2.9329375289581057 14.8352850643625693   T   T   T
  5.1581797667894032  7.4612826809580586  2.0646516717656644   T   T   T
  5.1538821386939047  7.4561943072396337  8.4310866945353098   T   T   T
  5.1394211860536663  7.4303732622966550 14.8273466008230610   T   T   T
 -0.0000231255261339  1.4985640332026211  4.0330198483924997   T   T   T
  0.0031894376495147  1.4694846166933515 10.5689917787750254   T   T   T
 -0.0348928393215323  1.4546392538525004 16.8850155448750492   T   T   T
 -2.5837748347525338  5.9706186865390976  4.1603540117113953   T   T   T
 -2.5915008714828711  6.0161036678138293 10.5532345914807539   T   T   T
 -2.6033189453423566  5.9253612511149161 16.9247878321930862   T   T   T
  5.1595013314190288  1.4908111895837732  4.1428721804939137   T   T   T
  5.1232967203739177  1.4550798103105183 10.6266948900494356   T   T   T
  5.1266360780918108  1.4382862903161970 16.9203222918747294   T   T   T
  2.5766480114185550  5.9762978652690935  4.1932830852336496   T   T   T
  2.5248087740713814  5.9829893936478111 10.5322422541199110   T   T   T
  2.5243519455441552  5.9246423638739971 17.0212645858920730   T   T   T
  2.5567024707369739 -0.0138989497438725 -0.0279795652022091   T   T   T
  2.5814624475331764  0.0021133921786419  6.2919617275301309   T   T   T
  2.5599484222406037 -0.0164407028911960 12.6995452247643321   T   T   T
 -0.0115317914480712  4.4727899609839117 -0.0628867314642046   T   T   T
  0.0642843496332933  4.4628706142025232  6.2649857477246780   T   T   T
 -0.0163275077525299  4.4583908996485588 12.7172778852907538   T   T   T
  7.7559122257821400 -0.0135037493379556 -0.0293051191265284   T   T   T
  7.7252254384487618 -0.0018858625151426  6.2919498818980824   T   T   T
  7.6992529243749557 -0.0100056502268884 12.7046536035109998   T   T   T
  5.1632644700531642  4.4958813367653478 -0.0412445500747921   T   T   T
  5.1563729900954032  4.4924840974189211  6.2691971104107207   T   T   T
  5.1898259363978827  4.3990154903808634 12.7539387202265146   T   T   T
  1.2965955090290697  0.7458803164750497  2.0310303544039470   T   T   T
  1.2874231109538889  0.7346352568686653  8.4541323573052072   T   T   T
  1.2618880974797064  0.7237483100623954 14.7976657585110907   T   T   T
 -1.3006903289657343  5.2229109804974181  2.0584007330412368   T   T   T
 -1.2761709191662316  5.2138949895351052  8.5303340295537495   T   T   T
 -1.2944238127900025  5.1991523976932763 14.8648792047579779   T   T   T
  6.4424751083736247  0.7480867527123600  2.0520192019991832   T   T   T
  6.4608329546436423  0.6990493363321554  8.4011955397360438   T   T   T
  6.4137207905316753  0.6828726197860147 14.8564399678286740   T   T   T
  3.9226143899316854  5.2523462398137974  2.0958220797984413   T   T   T
  3.8618504034761587  5.2436203856555430  8.3962620801265437   T   T   T
  3.8099272322677389  5.1936372732400304 15.0256244823915281   T   T   T
  1.2956254276525181  3.7348109039444437  4.1545101092088217   T   T   T
  1.2772569392395676  3.7089803003948969 10.5750587033196393   T   T   T
  1.2559839673424167  3.6519360929704132 16.8814628966550799   T   T   T
 -1.2861642010655252  8.2042620862184936  4.1631052341425248   T   T   T
 -1.2924571271944874  8.1710692319131120 10.5916380326502750   T   T   T
 -1.3431818014858548  8.1609961365479062 16.8920528376596124   T   T   T
  6.4419588233599079  3.7293624355202093  4.1447625606042431   T   T   T
  6.3789754132078107  3.7157512299036246 10.5848975327508850   T   T   T
  6.4153193450689798  3.6815413529316467 16.9213609046846436   T   T   T
  3.8558778491453598  8.1848856125261342  4.1607986769884056   T   T   T
  3.8575304700454565  8.1996792333672577 10.5555446311909922   T   T   T
  3.8573622487722181  8.1616263221012328 16.8880494501853704   T   T   T
 -1.2884247151871961  2.2357955116375723 -0.0492690096624811   T   T   T
 -1.3427577415986023  2.2495041532005993  6.3093158538775178   T   T   T
 -1.2999129438301975  2.2026674151944388 12.7088831610771713   T   T   T
 -3.8623989779794456  6.6984378167536427 -0.0154345319210758   T   T   T
 -3.8719203868418473  6.7150744670603721  6.2872464554803340   T   T   T
 -3.8720498120089171  6.7082434677507106 12.7161795748199467   T   T   T
  3.8834164844397088  2.2203372573830853 -0.1375512686960781   T   T   T
  3.8824722938214604  2.2382803035244363  6.2008216572747230   T   T   T
  3.8431012874790480  2.1913981715267847 12.7129497330439616   T   T   T
  1.2854972244510454  6.7103949607018629 -0.0535380677763309   T   T   T
  1.3058633292622375  6.7175956489385937  6.3086053581580384   T   T   T
  1.2462107308644081  6.6945253869654469 12.7110464940467391   T   T   T
  2.5516977968152688  4.5084191472867854  1.5156407657919939   T   T   T
  1.2381719214743476  6.6624059099352495 17.9101553619129916   T   T   T
 -1.3001675791876735  5.2360506951358596  6.8649977922356475   T   T   T
  3.8406452926884320  5.2049068250860664 13.4137368579390603   T   T   T
  3.8959713362550028  2.1855398444859984  7.8738758468121954   T   T   T
  0.0051365591806432  1.4765965104320875  5.6843467550015951   T   T   T
 -2.5467326869746691  4.4466673373720704 11.1730338103948554   T   T   T
  6.4629088833605444  2.2055898723754388  9.4938865407205508   T   T   T
  5.1868064933125595  1.4667348425460438 -1.0129298489287988   T   T   T
  3.8521032201816054  5.2597780088597590 11.3358481841453713   T   T   T
