Cu  H 
 1.0000000000000000
    10.3099279403999997    0.0000000000000000    0.0000000000000000
    -5.1549651590999996    8.9286588211000009    0.0000000000000000
     0.0000000000000000    0.0000000000000000   32.0000000000000000
 Cu  H  
 144  10
Selective dynamics
Cartesian
  0.0159524296329075  0.0254205107644450 -0.0875666743363598   T   T   T
  0.0359460079110857  0.0798057219934787  6.2236851787754599   T   T   T
  0.0110460641853335  0.0115428627884943 12.7057319152653108   T   T   T
 -2.5699142127991887  4.4723315041888876 -0.1093292814377324   T   T   T
 -2.4510944818292764  4.4922358500030475  6.3430497112561879   T   T   T
 -2.5662321196281224  4.4764174053642298 12.6876439257505442   T   T   T
  5.1178343317752351  0.0129835565455400 -0.0224441146408933   T   T   T
  5.0803678387999378 -0.0588621027197138  6.2759632429049370   T   T   T
  5.1535129714696692  0.0146866519724071 12.7358376777964839   T   T   T
  2.5638951059779953  4.4297986778662750 -0.0541830090867695   T   T   T
  2.5485881467878109  4.4296390033443229  6.2501544566414848   T   T   T
  2.5743458142591509  4.4723475610616505 12.7506885212038874   T   T   T
 -0.0054087879802703  2.9719210220254482  2.0191972199622206   T   T   T
 -0.0300810802401764  2.9689450166457099  8.4027926541466371   T   T   T
  0.0059940771415843  2.9846335033196629 14.7885496622032448   T   T   T
 -2.5698711535021466  7.4609187905092718  2.0319477759517981   T   T   T
 -2.5544516843997833  7.4446331647501172  8.4615943255760904   T   T   T
 -2.5684829250146670  7.4412035599580202 14.8344905626143007   T   T   T
  5.0466552747459543  2.8921362617104709  1.9556305599895771   T   T   T
  5.1634518865801811  2.9382552468765755  8.4781506251467196   T   T   T
  5.1678185985285570  2.9839890779540652 14.8355595738745265   T   T   T
  2.5703477613236227  7.4397051963293332  2.0837072930412770   T   T   T
  2.4690636579671548  7.5114823185915780  8.5201172216664514   T   T   T
  2.5776310949684440  7.4479685101341015 14.8274850017231685   T   T   T
  2.5559454106787429  1.4607204431765723  4.1536986971040228   T   T   T
  2.5801141507351666  1.4934720099033350 10.5914921492974425   T   T   T
  2.5775207171169958  1.4895443221456650 16.9067805025375577   T   T   T
  0.0041541961675861  5.9472273441012797  4.1625521832618464   T   T   T
 -0.0160419331451532  5.9776695364056138 10.5957335825714178   T   T   T
 -0.0024150022807129  5.9577899519839308 16.9000321287117110   T   T   T
  7.7658386288268000  1.4452725903747952  4.1089492015492599   T   T   T
  7.7428303593221175  1.5029996200967961 10.6156722209719998   T   T   T
  7.7361619333010365  1.4929647720460262 16.8825894845974709   T   T   T
  5.1591855410729108  6.0453515466198677  4.0678922092154908   T   T   T
  5.2698399750052607  6.0116477010496077 10.6694839882986976   T   T   T
  5.1638567027328088  5.9513845641099552 16.9546320978316913   T   T   T
  3.8351323782546021  0.7201722397962433  2.0520735251877098   T   T   T
  3.8472075447495997  0.7360929203584969  8.4695446444671827   T   T   T
  3.8676871913089408  0.7546558331584112 14.8225444450310153   T   T   T
  1.2879014585907644  5.2191537305373989  2.0449555943646254   T   T   T
  1.2069003856658864  5.2390895476164800  8.3924586868048454   T   T   T
  1.2869955813189011  5.2130281163137386 14.8230953719261951   T   T   T
  9.0126383791216629  0.7324565224303978  1.9920670342484235   T   T   T
  9.0214134721048023  0.7756249108892966  8.4508814572635078   T   T   T
  9.0303826479801526  0.7516289611816132 14.7983369677284475   T   T   T
  6.4626094247252075  5.3322113147721595  1.9410076053452134   T   T   T
  6.4870437261562719  5.1964494538696879  8.4623054716338046   T   T   T
  6.4562507153160222  5.2146025094725301 14.7851147464535178   T   T   T
 -1.2437030713337478  3.7134302429312673  4.1415011792784746   T   T   T
 -1.2784442548792558  3.7322759422750664 10.5735340074085062   T   T   T
 -1.2622946919446021  3.7103676483502896 16.8743101174700740   T   T   T
 -3.8467568918242958  8.1888234533925619  4.1082191544343045   T   T   T
 -3.8379280335037165  8.2248693194908480 10.5983755776936270   T   T   T
 -3.8632140020374797  8.2185656293887384 16.8911811289393512   T   T   T
  3.7601803213714668  3.6515701985100821  4.0929321255679287   T   T   T
  3.8895544796302501  3.6843325426510085 10.6475569909309282   T   T   T
  3.8420063839226235  3.7067851388197544 16.8967017988775048   T   T   T
  1.2770454561713229  8.1709666667583640  4.1645013226084311   T   T   T
  1.2657298049718091  8.2061617277314234 10.6418323330877307   T   T   T
  1.2922304676922645  8.1894086622870770 16.9149907929678172   T   T   T
  1.2687506912884099  2.2333344690921519 -0.0846976529385025   T   T   T
  1.2922573714303343  2.2308472072580439  6.2628565206590094   T   T   T
  1.2923470064059925  2.2419204049112311 12.6911807566365891   T   T   T
 -1.2921874863799263  6.7019631757942992 -0.0346119654859625   T   T   T
 -1.2555341597383511  6.6850450821174183  6.3159136255173172   T   T   T
 -1.2844199041796089  6.7147949432837084 12.7162574493001621   T   T   T
  6.4388297692931342  2.2194229273914541 -0.0870648664916782   T   T   T
  6.4534081205333633  2.1151294529458746  6.3333588753191083   T   T   T
  6.4489269450440148  2.2408163381703239 12.7196762245955828   T   T   T
  3.8547113693528448  6.7045585511258867 -0.1192260834817702   T   T   T
  3.8384256751488639  6.6600404713341144  6.2505241469405934   T   T   T
  3.8786281440494159  6.7190586741765657 12.7513523103253892   T   T   T
  2.5362420942342783  2.9586373313306051  2.0165752395725267   T   T   T
  2.5613019482432176  2.9151627432125751  8.3853847970815831   T   T   T
  2.5762417860871807  2.9785154689382249 14.8166000525811654   T   T   T
  0.0082057294461497  7.4333062421715752  2.0545336207713443   T   T   T
 -0.0335927254430557  7.4435025414314309  8.4766420118754624   T   T   T
  0.0031625465809734  7.4491708287834459 14.8286741108312583   T   T   T
  7.7873858379395866  2.9473959339790632  1.9912341145813361   T   T   T
  7.7498366430197478  2.9832636552131948  8.4782794595329669   T   T   T
  7.7328206239886956  2.9918353035475582 14.8098084062757813   T   T   T
  5.1331802334968941  7.4654776312376399  1.9821131001218657   T   T   T
  5.2161410167966462  7.4948035852230737  8.5445507894396808   T   T   T
  5.1658739977408938  7.4394708181493838 14.8335138147544185   T   T   T
  0.0012245389525128  1.4851522486380144  4.1136691733929913   T   T   T
  0.0059030931609483  1.5023815416108626 10.5632783634622935   T   T   T
  0.0010564629483422  1.4923645563615580 16.8855881813718938   T   T   T
 -2.5361250196594769  5.9666300750620334  4.1386071766896464   T   T   T
 -2.5476579611517232  5.9697737010980942 10.5840790858506679   T   T   T
 -2.5793758661367003  5.9517147141833160 16.9497529107089164   T   T   T
  5.1307851336534069  1.4310434787486452  4.1421460658163234   T   T   T
  5.1411027539139829  1.4989374100912700 10.6295808272942995   T   T   T
  5.1620467574968645  1.4895060913947538 16.9018213468943408   T   T   T
  2.5582915332043297  5.9524975216479579  4.1595597141948657   T   T   T
  2.5195776727131780  6.0183118737025030 10.6840688250833349   T   T   T
  2.5790826154222652  5.9560463916893971 16.9013087682177279   T   T   T
  2.5641640622324031  0.0010307348262795 -0.0678555951712108   T   T   T
  2.5885617040365445  0.0029177308412483  6.2983876926410325   T   T   T
  2.5883520292885738  0.0140812957297646 12.7175873242362574   T   T   T
 -0.0026202331684846  4.4708462357900967 -0.0413288145870754   T   T   T
  0.0277485723425707  4.4499882312212096  6.2756968629190233   T   T   T
  0.0024767590387190  4.4821158366169902 12.7013113687089074   T   T   T
  7.7237181344274024 -0.0123620894997057 -0.0992558808624671   T   T   T
  7.8175987200301460 -0.0383784603340399  6.2157895477766791   T   T   T
  7.7350362583386296  0.0098573260304736 12.7253596728495530   T   T   T
  5.1450171033259844  4.4678145275711696 -0.0956578390556464   T   T   T
  5.1310437353891256  4.4078270952879679  6.3476463637843796   T   T   T
  5.1711541092308764  4.4672124807694491 12.7394334485943634   T   T   T
  1.2732560005793787  0.7465512529684187  2.0186345099335834   T   T   T
  1.2953322865229480  0.7662639145832172  8.4400113256116569   T   T   T
  1.2939599435953544  0.7543716974680282 14.7967852145091197   T   T   T
 -1.2731162488448893  5.2166955211633255  2.0368210353367062   T   T   T
 -1.2886313414180026  5.2141645098935161  8.4607960376849523   T   T   T
 -1.2919197072159074  5.2199716684809898 14.8118482779356011   T   T   T
  6.4460898488766389  0.7152513056049037  2.0282503030839072   T   T   T
  6.4253001244085706  0.7733097745156918  8.6147130432740529   T   T   T
  6.4495872451993987  0.7502796030292237 14.8198524101608129   T   T   T
  3.8327524231287562  5.2311591466025851  1.9841269903871155   T   T   T
  3.8890306367046414  5.0906881023016766  8.3681855639633795   T   T   T
  3.8813787598083764  5.2167585978650264 14.8377726314526495   T   T   T
  1.2682581326254370  3.7127256244808868  4.1317595711068105   T   T   T
  1.2550988869555639  3.7134093344245884 10.5962601925260387   T   T   T
  1.2860484465428674  3.7221756174292531 16.8990704445667603   T   T   T
 -1.2929488485894940  8.1621109352561714  4.1654340340495448   T   T   T
 -1.2847178573979599  8.2047853994940620 10.6029342594824314   T   T   T
 -1.2846294779924445  8.1868599973113270 16.9077371946861632   T   T   T
  6.5082409565669224  3.6526993165888104  4.1198280348162548   T   T   T
  6.4705519545969263  3.7130006184277735 10.5911686186014649   T   T   T
  6.4490113473786819  3.7282825079891819 16.9448786461402499   T   T   T
  3.8781357636965712  8.1885558467049844  4.1206723858810896   T   T   T
  3.8659882022602097  8.2375579413793520 10.6177574134828987   T   T   T
  3.8690770494146869  8.1873006418553604 16.8921003886156704   T   T   T
 -1.2977896517676328  2.2357752050827551 -0.0838067939561803   T   T   T
 -1.2491967694674813  2.2264277524164231  6.2713100433722895   T   T   T
 -1.2800692728784930  2.2438778091159519 12.6929414924524711   T   T   T
 -3.8704759434468379  6.7217956943615329 -0.1095736145584255   T   T   T
 -3.7498125106304010  6.6577055109271761  6.2508977966053969   T   T   T
 -3.8394166139913257  6.7246758351802152 12.7312727363856428   T   T   T
  3.8398049821014304  2.2192294110884729 -0.0994413725449443   T   T   T
  3.8311429971503879  2.1971661166178560  6.2991548356701461   T   T   T
  3.8678973299150892  2.2441818743331359 12.7329864190566280   T   T   T
  1.2882740006104481  6.6985532199727311 -0.0741143520374370   T   T   T
  1.2789467997574266  6.6772052614648825  6.2860998071671634   T   T   T
  1.2809290098729083  6.7120863333572647 12.7461554391539060   T   T   T
  5.0668460061344769  4.5012422068737399  4.6078835640422477   T   T   T
  5.2690470727768792  7.4822996139254370  6.8176466156282514   T   T   T
  6.3670167390236445  3.7578497261381840  2.4510756625422592   T   T   T
  6.4628819992957638  0.5815675828490001  6.9642982691432698   T   T   T
  3.9405161539688134  5.3125987552708924 10.0738406744254938   T   T   T
  6.5737844782496992  3.6343452197655055  5.8083006816314988   T   T   T
  3.7809632932076687  6.7040263169319818  8.0212673267996610   T   T   T
  2.5547463883292316  7.4316872890178507 -1.0058369760089672   T   T   T
  2.2937022842146755  4.3155405603246839  9.3194119177891928   T   T   T
  6.4492386770364636  5.2066495712943937 17.8593693761684733   T   T   T
