Cu  H 
 1.0000000000000000
    10.3099279403999997    0.0000000000000000    0.0000000000000000
    -5.1549651590999996    8.9286588211000009    0.0000000000000000
     0.0000000000000000    0.0000000000000000   32.0000000000000000
 Cu  H  
 144  10
Selective dynamics
Cartesian
  0.0003545355423713  0.0010757967516818 -0.0671454679728633   T   T   T
 -0.0044741530221149 -0.0250053972563990  6.2718719545574553   T   T   T
 -0.0220254787694544 -0.0128688193928300 12.6576840592134374   T   T   T
 -2.5728346589572912  4.4606365883706891 -0.0689991627666200   T   T   T
 -2.5977935802755812  4.4882189208667995  6.2843942275431575   T   T   T
 -2.5787194532962281  4.4767987210258182 12.6894077872421143   T   T   T
  5.1486536848813031  0.0043616628838049 -0.0866033117217919   T   T   T
  5.1444044449133575 -0.0258275036224534  6.3041223714636221   T   T   T
  5.1756939506309418 -0.0079722144074512 12.6560103118025733   T   T   T
  2.5819671220185647  4.4559856161472657 -0.1085745955938657   T   T   T
  2.6673497455851947  4.5050641612604201  6.3478416224392120   T   T   T
  2.5800229837020394  4.5723882009435535 12.6412961892385720   T   T   T
 -0.0086301700902324  2.9704976761196433  1.9895368585534468   T   T   T
  0.0136483310541314  2.9767705888355387  8.5353808359463770   T   T   T
 -0.0192254748519993  2.9680482834729451 14.8219731950906350   T   T   T
 -2.5894739926254853  7.4488570257344549  2.0543527144420501   T   T   T
 -2.5771510794134946  7.4488885040888695  8.4204902006544824   T   T   T
 -2.5880285755554184  7.4128605673043326 14.8016866973514993   T   T   T
  5.1597134354167729  2.9485787328074116  1.9007067766755035   T   T   T
  5.1362804083067326  2.9777593075825317  8.4071208329850400   T   T   T
  5.1800986633266195  2.9859591092519047 14.7926507395354268   T   T   T
  2.6339067612637006  7.4840337167688666  2.0728905550617132   T   T   T
  2.5814898817163439  7.4364772303131188  8.4155455213172168   T   T   T
  2.5775351847951127  7.4365538635501487 14.7047106332329882   T   T   T
  2.5654335596426185  1.4559864496554720  4.1276287093602519   T   T   T
  2.5770462018368891  1.4816414932260422 10.5183805650228326   T   T   T
  2.5782401777203399  1.4761077564699467 16.9979384246050174   T   T   T
 -0.0138204362369106  5.9539955059035856  4.1768422724154739   T   T   T
  0.0069953114257420  5.9678792449402742 10.5551814052387130   T   T   T
 -0.0314095604003050  5.9384950015293470 16.8691345401633868   T   T   T
  7.7347081687308714  1.4519910301780725  4.1156574395442354   T   T   T
  7.7342596936884211  1.4281759176371316 10.5575481878056987   T   T   T
  7.7367222288325923  1.5233000956118747 16.8406179058369290   T   T   T
  5.1571409319953405  5.9971763712290187  4.2070796390080814   T   T   T
  5.1562954541613921  5.9720240192699121 10.5458729175846084   T   T   T
  5.1863163629835567  5.9428388377302852 16.8630615028518385   T   T   T
  3.8489009927240687  0.7380035922781374  2.0194439622226485   T   T   T
  3.8660406712726876  0.7351138301908716  8.4132735085200085   T   T   T
  3.9180097536992844  0.7153641468309426 14.8462027509430108   T   T   T
  1.2813738690063348  5.1893864119265887  2.0270542274297494   T   T   T
  1.3001827001252351  5.2285744174376179  8.4546525691658712   T   T   T
  1.2870699805324872  5.2302631749510047 14.7997721104934996   T   T   T
  9.0196447792562076  0.7533256051046313  2.0086110237517212   T   T   T
  9.0177547405777680  0.7151169746147422  8.4066441576935951   T   T   T
  9.0218496166316822  0.7302493073076182 14.7973808297283043   T   T   T
  6.4989678901238275  5.2353259176975735  1.9929038131955963   T   T   T
  6.4404556018041754  5.2352848050594245  8.4198530458008172   T   T   T
  6.4431655722928154  5.2078257998277433 14.7783710025163799   T   T   T
 -1.2924123035086461  3.7148260950437391  4.1068238262794239   T   T   T
 -1.2208537016438796  3.7709289952897693 10.6123394197006213   T   T   T
 -1.2923292231194783  3.7202548108062370 16.8797488308893868   T   T   T
 -3.8689623523455587  8.1863206694649371  4.1596999896701758   T   T   T
 -3.8657462151353927  8.1842638558838257 10.5431215861727967   T   T   T
 -3.8679059157689695  8.1893392889708494 16.9293279813145148   T   T   T
  3.8258789081267874  3.7174835490218987  4.1859803812518965   T   T   T
  3.8687882903209032  3.7362210361407202 10.5317869808795930   T   T   T
  3.8899896138969692  3.7316190603026405 16.8892162140526310   T   T   T
  1.2912499169688234  8.1624851305111914  4.1869882398199527   T   T   T
  1.2902761095556381  8.1806239716058649 10.5280501865845011   T   T   T
  1.2878595567988784  8.1840132716364362 16.8841172152395487   T   T   T
  1.2862435272820483  2.2240185725501944 -0.0924164789673894   T   T   T
  1.3356635656512372  2.1556361434990863  6.2615476366744067   T   T   T
  1.2184763715732156  2.2307700326616047 12.6286140239630047   T   T   T
 -1.2999874631088746  6.6956742647096794 -0.0622613412451506   T   T   T
 -1.2964197690417238  6.7056949820745171  6.3062590591915528   T   T   T
 -1.2880820125496744  6.6977224989304078 12.6745142045628008   T   T   T
  6.4593275720751242  2.2205156868561313 -0.1048608429075072   T   T   T
  6.4170949030612228  2.2044923690006084  6.2886677722190374   T   T   T
  6.4505053603611042  2.2275691758245073 12.6830566222747692   T   T   T
  3.8770085409222954  6.7063791417316772 -0.0913032012995623   T   T   T
  3.8754972237012013  6.7084289051481036  6.3028551920646390   T   T   T
  3.8856676816827411  6.7112360404420857 12.6544756551092110   T   T   T
  2.5688261162956785  2.9674673363043342  1.9859002049423458   T   T   T
  2.5975068706406987  2.9732348924160243  8.4448494389340141   T   T   T
  2.5773170875898335  2.9764808478914930 14.9297379353870863   T   T   T
 -0.0696944240210785  7.4827554700569765  2.0943705683058922   T   T   T
 -0.0015996215252756  7.4417853029437602  8.4276341400663153   T   T   T
  0.0124527893688794  7.4346938314529813 14.7697227838031502   T   T   T
  7.7490060044764704  2.9638715823751047  1.9974765405144341   T   T   T
  7.7024756236168663  2.9794887419976592  8.3185441406454590   T   T   T
  7.7327776075901404  2.9827814410384978 14.7716503139596291   T   T   T
  5.1595056921973992  7.4772688020279405  2.0383156552532498   T   T   T
  5.1630779766364308  7.4458487904312278  8.4193411619855905   T   T   T
  5.1492787017405934  7.4434531725635100 14.7997841023163108   T   T   T
 -0.0117958900084617  1.4662789268889682  4.1080725402571883   T   T   T
  0.0111237176113684  1.4650743228134582 10.5506758016100068   T   T   T
  0.0083135848371308  1.4808335850690928 16.9213853539943528   T   T   T
 -2.5601627369961220  5.9592461784683648  4.1695428051757020   T   T   T
 -2.5774370295354299  5.9834210381155017 10.5631920190288113   T   T   T
 -2.5811831070057245  5.9534366547099422 16.8745157159081955   T   T   T
  5.1450408112383821  1.3651506115400371  4.1923600380991495   T   T   T
  5.1424327072725209  1.4808245009960044 10.5272605602216345   T   T   T
  5.1675492429135934  1.4966926860874488 16.8598808099354116   T   T   T
  2.5789017884119847  5.9675083403877736  4.1776431408234931   T   T   T
  2.5853698919878605  5.9724362817241445 10.5431271845050389   T   T   T
  2.5742935152045816  5.9600550650905815 16.9047615159177518   T   T   T
  2.5741089058449962 -0.0058462975620345 -0.0583900958137290   T   T   T
  2.5799069512234429 -0.0148130383454416  6.2876311697190186   T   T   T
  2.5835818912932260 -0.0511384883320444 12.6184010222168261   T   T   T
 -0.0078307232316180  4.4547424472214283 -0.1054592009140136   T   T   T
 -0.0594053684158452  4.5223807855050007  6.3167451230968110   T   T   T
 -0.0120125448317713  4.4819254944010538 12.7007538724343565   T   T   T
  7.7353927010127910  0.0043477963227983 -0.1106685621161656   T   T   T
  7.7156869876598799 -0.0227097801107543  6.2876041339318629   T   T   T
  7.7365168112444458  0.0057729977205843 12.6463417959858191   T   T   T
  5.1586498481850516  4.4736212022067336 -0.1144923243855275   T   T   T
  5.1717433535562281  4.4698362633735771  6.3179811902713228   T   T   T
  5.1701605760924734  4.4853743738551382 12.6816907377237467   T   T   T
  1.2866427614220832  0.7515481282922106  2.0267334926839333   T   T   T
  1.2973923303862129  0.7286531612084498  8.4205301233195389   T   T   T
  1.2360528222054235  0.7112005547467701 14.7873996967344734   T   T   T
 -1.2910934156561491  5.2050662213895373  2.0370751460318863   T   T   T
 -1.2930094935438388  5.2404502082637547  8.4408350390783724   T   T   T
 -1.2890492938682299  5.2078660781433888 14.7810104001440692   T   T   T
  6.4477958422927673  0.7357286784444560  2.0120957081149853   T   T   T
  6.4323548252923732  0.7291227862998345  8.3999217742788872   T   T   T
  6.4568247856897347  0.7286899428235364 14.7687939078683197   T   T   T
  3.8255481435965710  5.2291182040878983  1.9822113171396951   T   T   T
  3.8794142799091191  5.2231590226134745  8.4419357712727496   T   T   T
  3.8672970059928908  5.2309163144274411 14.7985556980550310   T   T   T
  1.2866473573429815  3.7132250818804997  4.0189508389923825   T   T   T
  1.3037642141504839  3.7401861073048277 10.5483433172751386   T   T   T
  1.2766211286092246  3.7571774883687010 16.8940657620935362   T   T   T
 -1.3098430703121153  8.1641354055456947  4.1794128732954885   T   T   T
 -1.2813664419108759  8.1852932600977670 10.5373366990714814   T   T   T
 -1.2646421603769682  8.1604275835019937 16.8690337114531523   T   T   T
  6.5265275944940795  3.7224347880065274  4.2003956410217160   T   T   T
  6.3766812551347591  3.7660031483532381 10.5801943199549644   T   T   T
  6.4504304316906991  3.7247073856953152 16.8815714453604251   T   T   T
  3.8672394059357149  8.1891611156104762  4.1686787560155762   T   T   T
  3.8697725229432915  8.1776025021914158 10.5310898893509322   T   T   T
  3.8313718815016298  8.1658753905502479 16.8851211957931753   T   T   T
 -1.2842792171952098  2.2261562561117034 -0.0948884358458963   T   T   T
 -1.3924869935238451  2.1697918935934508  6.2030840953197499   T   T   T
 -1.2902386248496935  2.2238003446831001 12.6997676076132215   T   T   T
 -3.8680888045073409  6.7075000769350357 -0.0567221061615347   T   T   T
 -3.8613216962201160  6.7049974912818548  6.2929701341160884   T   T   T
 -3.8683442868975026  6.7019622351474615 12.6784642470150377   T   T   T
  3.8528126990179392  2.2222394798793008 -0.0965303792462539   T   T   T
  3.8751117579353513  2.2057638096673440  6.3068669991035611   T   T   T
  3.9405208416617139  2.2261694866848334 12.6230865200754359   T   T   T
  1.2860134259063609  6.6910564391931002 -0.2612202184347586   T   T   T
  1.2848009087005348  6.7053230469227074  6.3149700886782192   T   T   T
  1.2764819966332510  6.7100613244971914 12.6474398431423545   T   T   T
  5.1957796410018338  2.8605645992336175  3.5929051105999452   T   T   T
  2.5471145731012328  7.4394232852096467 17.8102767312141097   T   T   T
  2.5845374053784003  3.0720719407433035 13.2371613151390068   T   T   T
  1.3480344509109272  3.7937959083487072  5.6556034867446989   T   T   T
  1.2706979127734486  6.7653146260340149  1.4369017447862904   T   T   T
  7.7446445383529428  3.0072863476838685  9.9834891707846474   T   T   T
 -0.0919664485912213  2.8748739706929705  6.9021935410547526   T   T   T
  2.6051314464771429  1.1190522870406761 13.8701406130902214   T   T   T
  5.1628669366078430  4.8219940358700537  2.9452082803527460   T   T   T
  1.2705697457538103  0.7315405409367011 17.8630482630329084   T   T   T
