Cu  H 
 1.0000000000000000
    10.3099279403999997    0.0000000000000000    0.0000000000000000
    -5.1549651590999996    8.9286588211000009    0.0000000000000000
     0.0000000000000000    0.0000000000000000   32.0000000000000000
 Cu  H  
 144   9
Selective dynamics
Cartesian
 -0.0093041167783416 -0.0608222248507089 -0.0466663414235820   T   T   T
  0.0037775607276123 -0.0134465623028327  6.2714949632216248   T   T   T
 -0.0162802871432640  0.0132559313453101 12.6682963606256092   T   T   T
 -2.5906965986581874  4.4092521192134786 -0.0773022568234546   T   T   T
 -2.6247310006090796  4.4726708967568047  6.3213670270085913   T   T   T
 -2.5924892257893708  4.4809933769235535 12.6771615528305173   T   T   T
  5.1465210182916934 -0.0605287357842696 -0.1381294063761178   T   T   T
  5.1644871558599874  0.0318050077220248  6.4341495833003552   T   T   T
  5.1495467425634578  0.0232203928092425 12.6509736443524545   T   T   T
  2.5826228561969513  4.4117169130658827 -0.0909280142867587   T   T   T
  2.6755743926730551  4.5062950482848416  6.3436820341430780   T   T   T
  2.5660795562443943  4.4819156272197258 12.6537534858677319   T   T   T
 -0.1066728539205470  2.8693987177814506  1.9800627852597701   T   T   T
 -0.0111626519124625  3.0312343505156929  8.4950801874452964   T   T   T
 -0.0214525324732234  2.9810907412361036 14.7615159907879310   T   T   T
 -2.5958292711311448  7.3878161611002069  2.0248042685923355   T   T   T
 -2.5832338004664850  7.4706246419433002  8.4368572370788879   T   T   T
 -2.6453958267764630  7.4127284014621697 14.7327678495648495   T   T   T
  5.1238502748708736  2.9539946476737162  2.0812247563151689   T   T   T
  5.1581986597319540  3.0021195372671077  8.4306188789382528   T   T   T
  5.1472448077167625  2.9810396443936398 14.7488623094591969   T   T   T
  2.5849629864221186  7.4022095775156398  2.0201282175958961   T   T   T
  2.5904074511106834  7.4666128575380624  8.4464870698660182   T   T   T
  2.5752088029304132  7.4437368819275136 14.7529972304171881   T   T   T
  2.5798512895389778  1.4436370715468898  4.1366284051698266   T   T   T
  2.5747016809946386  1.5152122023833643 10.5526330071273637   T   T   T
  2.5298707156216742  1.5061113571966736 16.9514806584370028   T   T   T
 -0.0258366451949695  5.9360532762508598  4.0163049935726036   T   T   T
 -0.0032736558820678  5.9704466603396513 10.5652849869360814   T   T   T
 -0.0217027255663630  5.9470204715896759 16.8685313812533337   T   T   T
  7.7453890521269635  1.4636879903070825  4.1762648003515670   T   T   T
  7.7293943370063669  1.5147742809553237 10.5577556448701078   T   T   T
  7.7002060672658255  1.4885152577065754 16.8480774292588933   T   T   T
  5.1546348223944891  5.9266804006677036  4.1779989377153699   T   T   T
  5.1507826783106543  5.9781668030674266 10.5436650759241690   T   T   T
  5.1190231275949447  5.9572209314629605 16.9017413388273461   T   T   T
  3.8578533897074894  0.6824858740140235  1.9842152201521954   T   T   T
  3.8597909502997552  0.7719625252694680  8.4483058166744538   T   T   T
  3.8196122255969485  0.8199566294217180 14.7764816763595377   T   T   T
  1.2950896454293093  5.2606232806054214  1.9695502619547605   T   T   T
  1.2964680922115672  5.2324486421265677  8.4754282467370050   T   T   T
  1.2960157676683057  5.1958137236238962 14.8115911507055973   T   T   T
  9.0090470348487131  0.6713131383844358  2.0293245106531144   T   T   T
  9.0004628347500653  0.7553245777717125  8.4649543144131627   T   T   T
  9.0191218151851444  0.7382562135745869 14.8201162592874738   T   T   T
  6.4285432381027094  5.1728403168352557  2.0559523240575142   T   T   T
  6.4374658002333565  5.2407867977019924  8.4344646057766930   T   T   T
  6.4085659444994310  5.2159796888564456 14.7933960019920825   T   T   T
 -1.3354797988571596  3.6916843965620947  4.1606177463573992   T   T   T
 -1.2976371971199221  3.7417207987610923 10.5843917139001480   T   T   T
 -1.3351592851447793  3.7289857005050573 16.8388960144467461   T   T   T
 -3.8835915167276820  8.1582926560316942  4.1639978438435730   T   T   T
 -3.8741651464297053  8.2110633796137815 10.5440149468183044   T   T   T
 -3.8757773359532313  8.1682946167309378 16.8420277849030100   T   T   T
  3.8947573246366574  3.6931614700033846  4.1798075368491308   T   T   T
  3.8678055003360399  3.7475646511410483 10.5533044622384882   T   T   T
  3.8672880810969894  3.7038071669410817 16.7988816924507951   T   T   T
  1.3656495081646143  8.1378140143362216  4.1013523148114883   T   T   T
  1.2924107874363984  8.2060691460203099 10.5593214649042846   T   T   T
  1.2536988304858563  8.1923480703784595 16.8536873694489735   T   T   T
  1.2827691015119791  2.1677455060477615 -0.0881169871779453   T   T   T
  1.3399135726443614  2.2085061551671030  6.2608682376423213   T   T   T
  1.2784407078158939  2.2472777862779987 12.6676842277135755   T   T   T
 -1.3048473723671044  6.6392311045883492 -0.0795180907545077   T   T   T
 -1.3620092782982145  6.7274178242241804  6.3469032473476439   T   T   T
 -1.2994621309506902  6.7019639369382977 12.6451571774846450   T   T   T
  6.4386487543217950  2.1692458919767010 -0.3106129637932570   T   T   T
  6.4453355201539475  2.2477814929102076  6.3199314812052076   T   T   T
  6.4349536139336863  2.2487101675299699 12.6609102989397559   T   T   T
  3.8628860943191112  6.6412679458979236 -0.0398772272797278   T   T   T
  3.8972230479539420  6.7213342329113566  6.3032613726061983   T   T   T
  3.8568814112338328  6.7126308207822474 12.6487082669434230   T   T   T
  2.6690027777399954  2.8730474776053452  1.9764345247062987   T   T   T
  2.5968548495958328  3.0059886576185071  8.4568267879401962   T   T   T
  2.5506130688385342  2.9900886412865688 14.7545744002770221   T   T   T
 -0.0153850828469931  7.4098615604470215  1.9639576714551434   T   T   T
 -0.0009963000653508  7.4584930995919985  8.4744734879488313   T   T   T
  0.0543363307365798  7.4026309815754150 14.7233666492229318   T   T   T
  7.7417631098573336  2.9545899778052243  2.0688824748241323   T   T   T
  7.7196286197839630  3.0096922352428552  8.4461391781493749   T   T   T
  7.7179792055506686  2.9757837872429951 14.7624426979071970   T   T   T
  5.1486462970252873  7.3906216189577192  2.0605265300142190   T   T   T
  5.1603216165394796  7.4602568464077468  8.4305800504401418   T   T   T
  5.1331007314265777  7.4430089747928943 14.7500240332225463   T   T   T
 -0.0238241304345610  1.4368925727725248  4.1303498430024934   T   T   T
 -0.0038156313600415  1.5097566347230422 10.5787462609853620   T   T   T
 -0.0329537851602123  1.4918493119813838 16.9123481635551798   T   T   T
 -2.6095203868130330  5.9185369151300717  4.1602977064652880   T   T   T
 -2.5895498667358767  5.9803345381429978 10.5524831645857766   T   T   T
 -2.6036054781814766  5.9405554953080726 16.8746513140695775   T   T   T
  5.1502290238912778  1.4805104331720211  4.1712164200948791   T   T   T
  5.1525883347820232  1.5135927435597332 10.5451890539700237   T   T   T
  5.1351592690797299  1.4945312076981354 16.8775277723219546   T   T   T
  2.6189919227726408  5.9429664450496178  4.1540966706327396   T   T   T
  2.5787131068854712  5.9772983885269149 10.5524628999377263   T   T   T
  2.5576255457635484  5.9499254125732746 16.8964301494964531   T   T   T
  2.5673416744031221 -0.0613651273238670 -0.0734673542905470   T   T   T
  2.5831104921315782  0.0070214084186462  6.2934182258486810   T   T   T
  2.5588209563672031  0.0215949568049081 12.6472538412861244   T   T   T
 -0.0144752449678708  4.4113258531452120 -0.0953725567965702   T   T   T
 -0.1185849468208752  4.4910408364818286  6.3827624617472027   T   T   T
 -0.0032584479958584  4.4826658979778067 12.6813107690545017   T   T   T
  7.7320808528693821 -0.0656746189903407 -0.1138570608401916   T   T   T
  7.7475730794752078  0.0157992553436119  6.3076643334141256   T   T   T
  7.7278082558551322  0.0177332125570510 12.6734118129656341   T   T   T
  5.1483951802940728  4.4083753834073862 -0.0691730683416390   T   T   T
  5.1682486126489922  4.4792460082862240  6.3152899849867596   T   T   T
  5.1504279434671911  4.4817863386523769 12.6563659792649190   T   T   T
  1.2846246875795639  0.6771801142623896  2.0303860136028375   T   T   T
  1.3131632031140299  0.7638238645597475  8.4548833320147452   T   T   T
  1.2528154161891374  0.7556969155954403 14.7670277612482934   T   T   T
 -1.3220993252736404  5.1680837860949786  2.0104665174115168   T   T   T
 -1.3145211419981881  5.2337406706578564  8.4844814456583126   T   T   T
 -1.3015911194707139  5.1983407215709505 14.7659430216504806   T   T   T
  6.4428533103103618  0.6488911945060800  2.0228110344096013   T   T   T
  6.4551101600620164  0.7722565095195287  8.4514095288989211   T   T   T
  6.4353489679131508  0.7557288263364430 14.7614734379550914   T   T   T
  3.8762395365931925  5.1710894859488619  2.0425540250888505   T   T   T
  3.8730734543330718  5.2389848328645776  8.4405963005538389   T   T   T
  3.8523210987383858  5.2146853781823035 14.7391087737406110   T   T   T
  1.2881567370022515  3.6825319756009627  4.1040799531839749   T   T   T
  1.2859589908905631  3.7390380654184816 10.5701035060720230   T   T   T
  1.2647560482337035  3.7201804729781043 16.8959384804262100   T   T   T
 -1.3775456446244734  8.1320268158452542  4.0763887768233156   T   T   T
 -1.2950611597108614  8.2093517377495520 10.5549476859148150   T   T   T
 -1.3151774413633492  8.1886956637657011 17.0335039742956731   T   T   T
  6.4355137914578302  3.6995343850730369  4.2015219810478550   T   T   T
  6.4412541130171652  3.7482787136233582 10.5508386264609992   T   T   T
  6.4199548810442426  3.7196864072497502 16.8418374905721571   T   T   T
  3.8740235821260569  8.1595958787685561  4.1680522973109300   T   T   T
  3.8657768637543954  8.2086916666362129 10.5520733989031985   T   T   T
  3.8403096830535013  8.1866804913207503 16.8958415209970347   T   T   T
 -1.3023951135747998  2.1662268991851783 -0.1116204036723210   T   T   T
 -1.3405522181365410  2.2534145126419411  6.2786789806187251   T   T   T
 -1.3015730223293098  2.2373335518331041 12.6818865864039392   T   T   T
 -3.8787278316386979  6.6351919500519925 -0.0440929118970583   T   T   T
 -3.8720162822014546  6.7095662274147045  6.2992888014693387   T   T   T
 -3.8812783398527797  6.7078719166773242 12.6481226990939621   T   T   T
  3.8650377056850291  2.1716155143598308 -0.1320155113644434   T   T   T
  3.8831798051678343  2.2446528327733679  6.3194795621363600   T   T   T
  3.8554861022468354  2.2500393270092123 12.6520568024010913   T   T   T
  1.2873777644180071  6.6506199805213377 -0.1104771320999149   T   T   T
  1.3849513613299667  6.7456529789068993  6.3721687263104787   T   T   T
  1.2882879877896320  6.7010835463731002 12.6547878959265763   T   T   T
  0.0390033360021772  6.0635674807389108  5.6702496995223690   T   T   T
  1.2843377557731790  3.6548274169408539  2.4387684116256825   T   T   T
 -1.2784350579392487  8.1672476172517463 15.3228172519394956   T   T   T
  1.2707298218032805  3.8319333905845188  5.7352086108931939   T   T   T
  3.8234862651501436  6.7121637829671128 17.7948821735876770   T   T   T
  6.4297642360645995  2.1952025466207572  1.3829489507828225   T   T   T
  5.1361857952139225 -0.1396955755947801  4.7855190909671874   T   T   T
  1.2154452015706811  2.2688010309947400 17.8145494840826011   T   T   T
  0.0013792654659368  1.5353074489525309  7.3315441426906407   T   T   T
