Cu  H 
 1.0000000000000000
    10.3099279403999997    0.0000000000000000    0.0000000000000000
    -5.1549651590999996    8.9286588211000009    0.0000000000000000
     0.0000000000000000    0.0000000000000000   32.0000000000000000
 Cu  H  
 144  10
Selective dynamics
Cartesian
  0.0331440579443383  0.0088846673736554 -0.0170416998680617   T   T   T
  0.0050672061947393 -0.0237937758308476  6.3068404344892564   T   T   T
  0.0061623492467187  0.0038211144062900 12.6717372314538981   T   T   T
 -2.6063198326241057  4.4615495280313837 -0.1159873264543561   T   T   T
 -2.5894158284288569  4.4920844617389273  6.3251009193169523   T   T   T
 -2.6087324594775363  4.4833322445662658 12.6409218539581421   T   T   T
  5.1373596653270708  0.0120808164634326 -0.0793569795373106   T   T   T
  5.1297750210162514 -0.0114099638631068  6.3165655663419855   T   T   T
  5.1555810928502170  0.0036980651873987 12.6391026918264870   T   T   T
  2.5880909344531808  4.4347031931506011 -0.0624357986779789   T   T   T
  2.5762974030566124  4.4773461572309730  6.3167007127198778   T   T   T
  2.5841906930144991  4.4293225671806571 12.6565865989318898   T   T   T
  0.0909065179400633  2.9148961050290092  1.9923798385425859   T   T   T
 -0.0684095014279994  3.0090107464054485  8.4687236386418121   T   T   T
  0.0370871534402717  2.9483838885328297 14.7848555380671982   T   T   T
 -2.6030963717404521  7.4651788893804882  2.0675332112323055   T   T   T
 -2.5732875739157350  7.4283350793395400  8.4318709807405394   T   T   T
 -2.5814394984581166  7.4580559796059323 14.7949646473878964   T   T   T
  5.2089499839346534  3.0042114895384135  2.1145759447330899   T   T   T
  5.1609734938784140  2.9835830563868257  8.4456401330490305   T   T   T
  5.1488105094000325  2.9644577595931980 14.7677479034008048   T   T   T
  2.5907717015329657  7.4510809762912844  2.1196760715758387   T   T   T
  2.5757490133161220  7.4335545919569759  8.4411754577276774   T   T   T
  2.5906675718590844  7.4820495290091245 14.8023168045268552   T   T   T
  2.5770434161620730  1.4791499991752421  4.1912527663991446   T   T   T
  2.5873849925049934  1.4828199017598489 10.5617661640424174   T   T   T
  2.5888617843635315  1.4789896275591721 16.9019796356751293   T   T   T
  0.0064194471088635  5.9767512738908888  4.2947228707487239   T   T   T
 -0.0048578688300313  5.9549692606422742 10.5461401826123637   T   T   T
 -0.0054100636865159  5.9591612305338071 16.8518852967762029   T   T   T
  7.7168187514635234  1.4813293760894699  4.0476074823282211   T   T   T
  7.7283129797087984  1.4910007330880450 10.5418059233621584   T   T   T
  7.7303115426389217  1.4838954012285637 16.8334639680539837   T   T   T
  5.1494928527503889  5.9645669404546071  4.1973339133848162   T   T   T
  5.1610145903754470  5.9490822184644951 10.5505488099996061   T   T   T
  5.1523268452934241  5.9598586791037631 16.9237087921458205   T   T   T
  3.8697622680183192  0.6875085861068272  2.0931639648260627   T   T   T
  3.8794224625143818  0.7374138109358939  8.4290084843282163   T   T   T
  3.8665305563756727  0.7434649425152049 14.7150450987162422   T   T   T
  1.3789824469475067  5.1928269625198817  2.0009119855288713   T   T   T
  1.2835689434171669  5.2220702869823192  8.4430588950641585   T   T   T
  1.2618286362954518  5.1938847577899097 14.7944729567984741   T   T   T
  9.0240088989086900  0.7212111569431819  2.0284774181142557   T   T   T
  9.0109783582464580  0.7274443968369309  8.4540308979435910   T   T   T
  9.0281360339495791  0.7191142295399063 14.7816022410835828   T   T   T
  6.4088277509993308  5.2316026882774960  2.0723853346780614   T   T   T
  6.4421696341214609  5.2111302329562372  8.4393893068770929   T   T   T
  6.4250924275782344  5.2280649258838183 14.7867674045743929   T   T   T
 -1.2894049983183347  3.7307676031050314  4.2659783654603203   T   T   T
 -1.2957183635692051  3.7234649847730128 10.5462647584504801   T   T   T
 -1.2922261118665601  3.7185169010161840 16.8731088742949815   T   T   T
 -3.8687309105154086  8.1858925455922993  4.1864201295653372   T   T   T
 -3.8705323263283815  8.1761368980477940 10.5581036571195028   T   T   T
 -3.8950418618956748  8.1677572608983731 16.9085387154913782   T   T   T
  3.8684513177582582  3.7367947128613470  4.2118820968781039   T   T   T
  3.8756615937263033  3.7316532090961316 10.5607479858402176   T   T   T
  3.8653139248164305  3.7414427103688679 16.8497794144176005   T   T   T
  1.2738770519210396  8.1900414643746551  4.1913034983287405   T   T   T
  1.2952894428882185  8.1831125452223965 10.5405540670562026   T   T   T
  1.3059490015391981  8.1739331263772019 16.8411820438489528   T   T   T
  1.2972524868614097  2.2245928413462064 -0.0905321174436419   T   T   T
  1.2764925314802931  2.2259612741345172  6.2161657427663561   T   T   T
  1.3041578102278435  2.2163760916046473 12.6709543438223147   T   T   T
 -1.2961061539809504  6.7210885668884428 -0.1060278968165715   T   T   T
 -1.3031839799505200  6.7026595285438368  6.3233135850755211   T   T   T
 -1.2950070219757255  6.7184140519818660 12.6611142979389282   T   T   T
  6.4472646830937910  2.2244474889999175 -0.0815231155547662   T   T   T
  6.3678732302708498  2.2795377131486938  6.3476540269205382   T   T   T
  6.4289671352963005  2.2247764354224033 12.6496649891901605   T   T   T
  3.8636719201422127  6.6955974215434653 -0.0499447505976810   T   T   T
  3.8715785980920017  6.6882152709332994  6.3213945850263515   T   T   T
  3.8946862490239056  6.7118603854034147 12.6292112501226619   T   T   T
  2.5777572830382440  2.9853874735149097  2.0908736500601717   T   T   T
  2.6495029017875629  3.0252263036058054  8.4753554248345111   T   T   T
  2.5856675374837477  2.9488886489933548 14.7812259754319371   T   T   T
  0.0129672821550033  7.4791493730106051  2.0027029989203911   T   T   T
  0.0000943591934164  7.4379959345370983  8.4333890984915030   T   T   T
 -0.0192857166777813  7.4612176481054702 14.7716104068455216   T   T   T
  7.6876975630399835  2.9639345876614152  1.9997061102111264   T   T   T
  7.7183740138214274  2.9857980425750692  8.4443523330407491   T   T   T
  7.6926329933669937  2.9557855918825768 14.7812555894680973   T   T   T
  5.1450846781405435  7.4426473601561041  2.0742034038768802   T   T   T
  5.1489397522002651  7.4288833838738055  8.4366590243316022   T   T   T
  5.1696400855715758  7.4481698304052477 14.7444463279294098   T   T   T
  0.0090731431331205  1.4727839298922047  4.1579265737035938   T   T   T
 -0.0030979985771895  1.4829992053518517 10.5730345189981261   T   T   T
 -0.0023421282217618  1.5105971610466788 16.8489114466230419   T   T   T
 -2.5974899144211663  5.9746488728661005  4.1992632805446162   T   T   T
 -2.5759010435132508  5.9547917151304786 10.5509389023543800   T   T   T
 -2.5591997745948327  5.9389379155248072 16.8498955445726111   T   T   T
  5.1457213462832874  1.4863056672593655  4.1876682201689626   T   T   T
  5.1532800045007416  1.4907735487450988 10.5396652244391245   T   T   T
  5.1533021213903316  1.4865492947858281 16.8868017000203636   T   T   T
  2.5907662198904329  5.9572252935512644  4.2121343789956818   T   T   T
  2.5769707259366066  5.9505157235227397 10.5383836449007280   T   T   T
  2.5474063863047385  5.9364118954219061 16.8815184255916506   T   T   T
  2.5772946229180658 -0.0056113443566315 -0.0653783344815250   T   T   T
  2.5757673786995521 -0.0147750795427566  6.3067094727871318   T   T   T
  2.5729268229049365 -0.0053577769805489 12.6548211160242197   T   T   T
  0.0066574237494705  4.4671977047285125 -0.0986013659907095   T   T   T
 -0.0058818744121490  4.4756530515350121  6.3234268056865259   T   T   T
  0.0135467848765876  4.4777617298941008 12.6367210975800166   T   T   T
  7.7364161439541421 -0.0162078875178596 -0.0927434009758925   T   T   T
  7.7277779379087628 -0.0819832552560153  6.3518129008410762   T   T   T
  7.7315878244032472  0.0127400893458839 12.6584268232541177   T   T   T
  5.1538067094208699  4.4659437248442844 -0.0334106137084873   T   T   T
  5.1438052071008169  4.4810844304945388  6.3244390410304705   T   T   T
  5.1654863112579266  4.4588720233993184 12.6708745174779800   T   T   T
  1.2952685503855395  0.7260262500526613  2.0655112782653076   T   T   T
  1.2835992653633441  0.6623382099602911  8.4675736783972813   T   T   T
  1.3028344415052959  0.7313685885550854 14.7962342929003352   T   T   T
 -1.3962266509984977  5.2723187779267775  1.9183147001467262   T   T   T
 -1.2946751736738245  5.2203240501379353  8.4361149738034307   T   T   T
 -1.2956945669138424  5.2565958659423595 14.7835959237944152   T   T   T
  6.4590709352256592  0.7205603934966563  2.0195082857634841   T   T   T
  6.4356312007949068  0.7374149308235629  8.4447834053389403   T   T   T
  6.4297175893218910  0.7448831072185900 14.7592852532672580   T   T   T
  3.8768110409600016  5.2336204376892468  2.0769225384067140   T   T   T
  3.8707684245797487  5.2202415750253053  8.4362148651633060   T   T   T
  3.9076063465741182  5.2011726865158865 14.8109724080910450   T   T   T
  1.3151133754868956  3.7211444488023799  4.1882998052956761   T   T   T
  1.2871799129600201  3.7252536757882520 10.5721596347549962   T   T   T
  1.2912686433044043  3.7132929319066994 16.8560340227538461   T   T   T
 -1.2986994544514676  8.1923629752038742  4.1924384181616929   T   T   T
 -1.2883660343578835  8.1856165560624508 10.5376402890273013   T   T   T
 -1.2906305774771023  8.1973162256722905 16.8969935574629382   T   T   T
  6.4261107808112010  3.7477095671499123  4.1995932118987263   T   T   T
  6.4425358128366561  3.7217824348576722 10.5516068169601631   T   T   T
  6.4392549515320665  3.7212174118168764 16.8388207057450536   T   T   T
  3.8748497829323583  8.1814409974527624  4.1892162200767702   T   T   T
  3.8665276021392958  8.1836466414759741 10.5498850001069844   T   T   T
  3.8705137779504044  8.1788198954200002 16.9176431751071767   T   T   T
 -1.2875636896266263  2.2227410062924808 -0.0685864259148263   T   T   T
 -1.2670650771926111  2.2470837863086524  6.3297466997349572   T   T   T
 -1.2930993244405260  2.1975028729325023 12.6417659864522509   T   T   T
 -3.8682955406109767  6.6957076634715103 -0.0022962857310386   T   T   T
 -3.8728716623744974  6.6999497873025735  6.3205977260217505   T   T   T
 -3.8569440214682031  6.6982880266820919 12.6692071949953053   T   T   T
  3.8733881921969453  2.2298043687685327 -0.2884237881077848   T   T   T
  3.8602247226792601  2.2327162419356097  6.3005803472053659   T   T   T
  3.8717029036092838  2.2347381858754316 12.6520774191727465   T   T   T
  1.3060761082789829  6.7043260242814355 -0.1108586030638551   T   T   T
  1.2859650623001104  6.6931318784277893  6.3336676816805930   T   T   T
  1.2593273757548347  6.7181936839157972 12.6429189243311342   T   T   T
  7.6756586507546469  1.4600165331593993  5.7056742271817287   T   T   T
 -1.2266775888084802  3.7290476145557228  2.5809439396540368   T   T   T
  3.9157570692128396  2.2193010506057180  1.4164333568510121   T   T   T
  3.8842135861118190  0.7501064162110743 17.8075554644515073   T   T   T
  1.3077687328918897  2.2361996308381773  7.8891036117343596   T   T   T
  2.6164557056427538  7.4317201733782507 -1.0037989446334128   T   T   T
 -0.0017080034557742  5.9030373773727893  2.6270165264715186   T   T   T
 -1.3009799060621487  3.7132064700607725 13.7844826298973544   T   T   T
  2.5831691402461909  5.9571644196312654 13.7937604482008425   T   T   T
  5.1455413262597007  7.4383400673646696 17.8349419264558158   T   T   T
