Cr Co Ni Cr Co Ni  H Cr Co Ni Cr Co Ni Cr Co Ni  H Cr Co Ni 
1.0
       28.2240009308         0.0000000000         0.0000000000
        0.0000000000        42.3360023499         0.0000000000
        0.0000000000         0.0000000000        14.1120004654
   Cr   Co   Ni    H
  516  510  510   39
Direct
     0.190061405         0.041535441         0.994585454
     0.122871928         0.289845705         0.125707462
     0.124122038         0.124071352         0.873426795
     0.999168754         0.082006037         0.995587170
     0.061301488         0.080961868         0.126160756
     0.186204910         0.167710289         0.628339171
     0.438786417         0.125450388         0.746281147
     0.313048422         0.206461951         0.748145938
     0.375796795         0.249407873         0.999351919
     0.124105908         0.999157906         0.506014347
     0.252755493         0.247228503         0.250501424
     0.374660671         0.206375539         0.127727404
     0.122751005         0.208664775         0.620890439
     0.996656001         0.248567894         0.749445796
     0.119352825         0.167509615         0.250973552
     0.437978774         0.164275110         0.124541171
     0.315906316         0.042518940         0.501250684
     0.186092779         0.040061925         0.748384356
     0.372209340         0.248851210         0.251672953
     0.997697830         0.001363960         0.503995657
     0.251563698         0.208384246         0.874179542
     0.187178999         0.998027861         0.870740116
     0.375190616         0.085729718         0.256888360
     0.997145832         0.289682060         0.625401676
     0.124710768         0.125697300         0.124566928
     0.438737988         0.125287607         0.989448071
     0.998157144         0.001883016         0.998313606
     0.061263718         0.208522096         0.746631324
     0.374925494         0.083246723         0.998096704
     0.123584770         0.251375318         0.752264977
     0.439361274         0.250920713         0.375847220
     0.251341492         0.039140288         0.623782456
     0.186710551         0.248910248         0.129204050
     0.060618520         0.124956526         0.999056935
     0.251470357         0.042192478         0.370849133
     0.061273564         0.042720743         0.507789433
     0.062645778         0.001380061         0.372745097
     0.251158208         0.167195380         0.498807877
     0.437111497         0.042548608         0.254839867
     0.439801157         0.207535163         0.253347903
     0.252063870         0.042552456         0.126779035
     0.185991019         0.248050258         0.371256262
     0.186333969         0.208680317         0.755032480
     0.374289215         0.042322602         0.127270356
     0.249397680         0.082764104         0.746605456
     0.251922339         0.126194552         0.628156722
     0.186834887         0.249741808         0.622823894
     0.309024125         0.124980733         0.254887015
     0.061904117         0.002017256         0.125736281
     0.375095963         0.290713251         0.873694599
     0.251684278         0.084702261         0.501904428
     0.314400703         0.206797674         0.500403464
     0.249968424         0.125402391         0.876048744
     0.376072496         0.000676612         0.997197390
     0.060940441         0.289943933         0.500200987
     0.124464072         0.083645545         0.744452596
     0.119867481         0.208830267         0.123609185
     0.189917639         0.126781300         0.251398772
     0.003485586         0.165533677         0.251536518
     0.185792744         0.042063441         0.506350696
     0.312148064         0.082341805         0.877134562
     0.997094631         0.000217903         0.746858299
     0.312602341         0.249781027         0.627500474
     0.313914210         0.999198437         0.128906533
     0.377202719         0.290235966         0.126457825
     0.125753596         0.081165753         0.995878637
     0.001526518         0.124632314         0.382586807
     0.186226279         0.082658432         0.371771604
     0.000988247         0.167135254         0.000083586
     0.999798477         0.999650180         0.251124561
     0.376249462         0.251043081         0.500417709
     0.436627924         0.998893797         0.377852857
     0.187091246         0.209352359         0.998617411
     0.185859844         0.165503025         0.875713229
     0.439276397         0.086022146         0.126718089
     0.377040416         0.082881078         0.748340726
     0.314871550         0.999796093         0.369466394
     0.184693068         0.125553742         0.498744696
     0.313134432         0.207141966         0.997605562
     0.187588900         0.000830964         0.373707116
     0.120781198         0.125480786         0.374613613
     0.998266220         0.288827330         0.124611951
     0.187033594         0.290846676         0.498669356
     0.376951903         0.998711228         0.504630685
     0.315259457         0.039250765         0.749756098
     0.124387302         0.000090660         0.997723579
     0.188261941         0.374358594         0.993640244
     0.122655548         0.624230385         0.125181228
     0.123372614         0.457631111         0.872865081
     0.999413192         0.415263563         0.995382369
     0.060946193         0.414306819         0.126373455
     0.185363814         0.501334071         0.628632843
     0.437404722         0.458349526         0.745944858
     0.309843540         0.540419638         0.748656452
     0.373670220         0.583937466         0.998754382
     0.123847373         0.332076281         0.506180823
     0.252004653         0.581792235         0.248765901
     0.373845786         0.539955854         0.127687424
     0.122889236         0.542917788         0.620829880
     0.996536613         0.582596481         0.749223828
     0.119128987         0.501256824         0.250858396
     0.436992615         0.497437865         0.121315457
     0.313988328         0.374849826         0.499628574
     0.185367599         0.372895688         0.748350501
     0.368741661         0.582896054         0.249707609
     0.997914910         0.334174126         0.504238009
     0.250823051         0.542407990         0.875791132
     0.186109141         0.330619901         0.870349467
     0.372181028         0.419225574         0.249582499
     0.997024119         0.623798490         0.625308394
     0.124047697         0.459193796         0.124628402
     0.436082691         0.459108382         0.983436942
     0.998357534         0.334602207         0.998216450
     0.061202269         0.542544723         0.746293843
     0.374246836         0.415762842         0.998812735
     0.123645723         0.585557759         0.752528489
     0.435516447         0.585115850         0.380371898
     0.251216143         0.371899039         0.624211848
     0.186255544         0.583379269         0.127894223
     0.060143881         0.458592713         0.999220908
     0.250751257         0.375284523         0.370111942
     0.061124276         0.375771612         0.507492602
     0.062615633         0.334233612         0.372778147
     0.249870539         0.500603974         0.498723507
     0.436061919         0.374052137         0.253134817
     0.436498702         0.540714145         0.258555055
     0.250076383         0.375259846         0.125015453
     0.186063409         0.582598925         0.371033639
     0.186060950         0.542635322         0.755491674
     0.371531606         0.374788910         0.128084838
     0.248298064         0.415649444         0.747434795
     0.250203520         0.459415138         0.629272759
     0.187243879         0.584073901         0.623471439
     0.306806713         0.458268464         0.251570612
     0.061822381         0.334834963         0.125943899
     0.374047428         0.625908732         0.872568607
     0.250749350         0.417711914         0.502442598
     0.312452495         0.540684462         0.500536501
     0.248754859         0.458570600         0.876549959
     0.375016689         0.333045781         0.997472167
     0.060829733         0.624017715         0.500182986
     0.123811506         0.416769624         0.744572341
     0.119600408         0.542883575         0.123825006
     0.189123049         0.459995836         0.251023531
     0.003491537         0.499423921         0.251757205
     0.185516268         0.375051826         0.506468415
     0.310572445         0.414921701         0.879036248
     0.997242451         0.333028972         0.746487379
     0.310301363         0.583816051         0.627747536
     0.312059402         0.331416458         0.128212571
     0.375104934         0.626632869         0.131407902
     0.124830581         0.414629847         0.995474279
     0.001649009         0.458251119         0.382558376
     0.185647845         0.415787756         0.371602654
     0.000920376         0.501062572         0.999986410
     0.999958515         0.332452208         0.251147538
     0.371520132         0.586286426         0.496859610
     0.437778383         0.328735501         0.372314751
     0.186157301         0.543354928         0.998520851
     0.185077161         0.499259472         0.876022816
     0.438240528         0.418422878         0.128530994
     0.373394698         0.416357577         0.750349402
     0.312999785         0.331833571         0.367712408
     0.184022665         0.458705217         0.498967230
     0.311972260         0.541585624         0.999911487
     0.187153548         0.333758831         0.373735428
     0.120444156         0.458998680         0.374361217
     0.998210013         0.622909009         0.124605305
     0.187457576         0.625226498         0.499278635
     0.375285685         0.329048276         0.503370643
     0.313582212         0.371574432         0.753506899
     0.123549111         0.332592070         0.997335911
     0.188863933         0.709031045         0.994099438
     0.123442583         0.957310677         0.125735715
     0.123739898         0.791749358         0.873231411
     0.999277234         0.749457002         0.995359659
     0.060908385         0.748465538         0.126271933
     0.186023489         0.835378408         0.628422856
     0.438490272         0.792402327         0.746791840
     0.313361913         0.873694241         0.748295963
     0.376487285         0.916888356         0.999163866
     0.123652913         0.666173637         0.506458938
     0.253749490         0.914955676         0.250720143
     0.374888033         0.873628378         0.127916694
     0.122965820         0.876495421         0.620958626
     0.996548295         0.916075349         0.749648273
     0.119288042         0.835289538         0.250905603
     0.437883288         0.831120908         0.124516860
     0.314597964         0.710127711         0.501118302
     0.185059935         0.707558692         0.748628438
     0.372841537         0.916135788         0.252189249
     0.997875810         0.668332994         0.504228473
     0.251940757         0.875929654         0.874346972
     0.185971215         0.665409088         0.870421290
     0.374398589         0.753058910         0.256910712
     0.996983051         0.957069695         0.625522017
     0.124237522         0.793359578         0.124551937
     0.438527644         0.792161465         0.989391208
     0.998147190         0.668769479         0.998169243
     0.061412647         0.876214981         0.746721148
     0.374040961         0.750609577         0.998379052
     0.124026522         0.918976545         0.752598405
     0.439658761         0.917387605         0.376257479
     0.250013947         0.706809521         0.623771966
     0.187560543         0.916571379         0.129306585
     0.060315050         0.792635858         0.999114871
     0.249818608         0.709895372         0.370754391
     0.061100479         0.709930003         0.507491827
     0.062552586         0.668324053         0.372744769
     0.250937194         0.834599912         0.498717487
     0.436117977         0.709924877         0.254158527
     0.439973742         0.874411285         0.253161341
     0.250430554         0.710346162         0.126588732
     0.186669260         0.915702939         0.371052593
     0.186681196         0.876316667         0.755256295
     0.373004138         0.709806740         0.127347916
     0.248414442         0.750356197         0.746689200
     0.251333714         0.793699920         0.628259957
     0.187577158         0.917279959         0.623175442
     0.308352560         0.792264819         0.254755408
     0.061632201         0.669088900         0.125689477
     0.376058102         0.958397150         0.872582614
     0.250654131         0.752292156         0.501912177
     0.314571828         0.873911202         0.500384986
     0.249332815         0.793007910         0.876143396
     0.373892188         0.668318927         0.997276068
     0.060927317         0.957268476         0.500361383
     0.123841435         0.751175106         0.744506299
     0.120179228         0.876579285         0.123504370
     0.189335421         0.794435441         0.251399428
     0.003465323         0.833303571         0.251522541
     0.184678450         0.709520757         0.506139755
     0.311107486         0.749976158         0.877172470
     0.997119248         0.667224348         0.746482611
     0.313352078         0.916956544         0.627615392
     0.311853886         0.667034507         0.128963485
     0.378309846         0.957816362         0.127016932
     0.125008509         0.748789907         0.995630682
     0.001643338         0.792288423         0.382522166
     0.184995472         0.750325024         0.371933341
     0.000983472         0.834902644         0.000073283
     0.999886930         0.666566849         0.251071185
     0.376903474         0.917654991         0.500754476
     0.436881036         0.667043030         0.376507252
     0.187469199         0.877038777         0.998650432
     0.185630292         0.833188772         0.875803947
     0.438882679         0.753088176         0.126693115
     0.376132876         0.750346422         0.748241544
     0.312717944         0.667731106         0.368875563
     0.184055433         0.793226600         0.498885781
     0.313602656         0.874593496         0.997632265
     0.186587811         0.668005407         0.373803586
     0.120220110         0.793287337         0.374606997
     0.998097837         0.956179738         0.124475598
     0.187785819         0.958243906         0.499069035
     0.374157965         0.666728377         0.506892204
     0.314030856         0.706869364         0.749448359
     0.123582572         0.667201221         0.997303247
     0.689778864         0.041587859         0.994497359
     0.624178290         0.289614230         0.127156302
     0.624312162         0.124406762         0.873203754
     0.499271184         0.082372114         0.995507419
     0.561320901         0.081256837         0.126241103
     0.686469495         0.168031186         0.628327370
     0.938774586         0.125028610         0.746440768
     0.813898742         0.206335932         0.748159587
     0.876816332         0.249682769         0.999315083
     0.623915493         0.999118567         0.506308317
     0.754430771         0.247531116         0.251105160
     0.875160515         0.206416607         0.128046185
     0.623363197         0.209358588         0.620871782
     0.496582925         0.248877615         0.749982238
     0.619836509         0.167798951         0.251516581
     0.937958002         0.163940728         0.124532193
     0.815603375         0.042467039         0.501322567
     0.685840905         0.040111113         0.748527646
     0.873175919         0.248921871         0.252327412
     0.497807711         0.001301865         0.504316211
     0.752537906         0.208461925         0.874335408
     0.686916292         0.997993112         0.870675087
     0.875031829         0.085528933         0.256902128
     0.496475399         0.289906353         0.625858486
     0.624875724         0.125992462         0.124767512
     0.938714206         0.124937087         0.989518464
     0.498234928         0.001832577         0.998150766
     0.561711252         0.209087223         0.746517181
     0.874755919         0.083029710         0.998081684
     0.624626577         0.251787096         0.752868593
     0.939878941         0.250200570         0.376255602
     0.751017749         0.039156064         0.623813331
     0.688322008         0.248908356         0.129925430
     0.560831547         0.125312120         0.999061346
     0.751135170         0.042187415         0.370990545
     0.561196625         0.042818360         0.507831931
     0.562612116         0.001343522         0.372854382
     0.751531959         0.167169169         0.498891830
     0.936906457         0.042399742         0.254851282
     0.940134525         0.207184866         0.253304899
     0.751722813         0.042547137         0.126783386
     0.687297821         0.248287395         0.371430695
     0.687218070         0.208972439         0.755118251
     0.874016762         0.042212937         0.127349824
     0.749228656         0.082791865         0.746671319
     0.751928508         0.126235738         0.628318369
     0.688278019         0.249939859         0.623049974
     0.809064090         0.124813281         0.254859090
     0.561884880         0.002009163         0.125665024
     0.876327813         0.291233003         0.872749805
     0.751512110         0.084711112         0.502045989
     0.815057397         0.206568763         0.500479162
     0.750078976         0.125468820         0.876133800
     0.875735462         0.000665538         0.997192800
     0.560878336         0.289987504         0.499508917
     0.624381542         0.083837017         0.744480371
     0.620806754         0.208929092         0.123874217
     0.690095723         0.126938254         0.251638651
     0.503525436         0.165991828         0.251878232
     0.685508251         0.042098559         0.506365836
     0.811958611         0.082250118         0.877191484
     0.497143239         0.000179017         0.746864200
     0.813811779         0.249644309         0.627459645
     0.813527763         0.999195516         0.128899157
     0.878683150         0.290601224         0.127100408
     0.625753760         0.081439734         0.995835304
     0.501576960         0.125047445         0.382910341
     0.686049104         0.082777485         0.371948391
     0.501187444         0.167445138         0.000119728
     0.499868751         0.999626398         0.251081139
     0.877183676         0.250483602         0.500686884
     0.936412811         0.998861253         0.377807677
     0.688220978         0.209480494         0.999014497
     0.686337531         0.165764302         0.875710726
     0.939131737         0.085750215         0.126717225
     0.876857340         0.082686201         0.748417914
     0.814511716         0.999786377         0.369565278
     0.684749603         0.125712156         0.498993605
     0.814153194         0.207207635         0.997612536
     0.687281191         0.000774575         0.373864114
     0.620800614         0.125776514         0.374981344
     0.498998851         0.288654894         0.124630801
     0.688775301         0.290933222         0.498914689
     0.876685143         0.998709142         0.504590809
     0.814931691         0.039212517         0.749720991
     0.624225020         0.000031811         0.997641504
     0.691189468         0.374301553         0.995312750
     0.626500189         0.625502050         0.125042513
     0.624847054         0.457904994         0.872335494
     0.501266301         0.413881093         0.992666602
     0.560998082         0.414054841         0.124629930
     0.688520133         0.501055121         0.629249334
     0.939325929         0.458415419         0.746240735
     0.815263271         0.540068686         0.747068763
     0.876589239         0.583854795         0.999002278
     0.625048637         0.331470340         0.506539941
     0.754584968         0.581888080         0.251027495
     0.875236213         0.540425658         0.127812877
     0.625560105         0.543338895         0.619734764
     0.496933788         0.583076119         0.750126600
     0.624272048         0.501769245         0.253964871
     0.938054979         0.497832447         0.124498516
     0.816632867         0.375179023         0.501576185
     0.686746657         0.372554690         0.750413954
     0.873060346         0.583003581         0.252012610
     0.497177511         0.333294958         0.500397742
     0.754110277         0.541946471         0.871885180
     0.688804269         0.330160469         0.872419477
     0.875752389         0.418584526         0.256598532
     0.498341769         0.624570012         0.627548218
     0.627923429         0.459998369         0.122851163
     0.939236164         0.458420962         0.989932477
     0.498792976         0.334255874         0.999657154
     0.562636316         0.543205857         0.744214535
     0.875626504         0.416139692         0.997909725
     0.626613796         0.585382640         0.751887739
     0.939736962         0.584183931         0.376070708
     0.751615942         0.371791124         0.623985469
     0.690592647         0.583202481         0.126386598
     0.561849415         0.458778143         0.998895824
     0.752620459         0.374934316         0.370321006
     0.562791109         0.374451548         0.509686649
     0.563714564         0.333883017         0.372760177
     0.753186285         0.500100672         0.499727786
     0.937481403         0.375420988         0.254754096
     0.940076649         0.541132867         0.253311872
     0.752796292         0.375401407         0.126786515
     0.690387666         0.582826078         0.376137584
     0.689141333         0.542683840         0.753312349
     0.874837935         0.375184387         0.126955450
     0.749833822         0.415416658         0.746901810
     0.753391743         0.458975345         0.629287302
     0.690178692         0.584205091         0.622199357
     0.810134947         0.457997978         0.254205137
     0.563254118         0.334454894         0.126071379
     0.876403093         0.625545025         0.872731030
     0.753202438         0.417411804         0.502494991
     0.815553427         0.540344775         0.501096010
     0.751337230         0.458589733         0.875226915
     0.876512885         0.333481222         0.997175694
     0.561635256         0.624862492         0.502584934
     0.625068188         0.416074276         0.747135103
     0.625694871         0.540745676         0.122324258
     0.691958725         0.459824055         0.251968473
     0.504122972         0.497672051         0.252339333
     0.687056899         0.375038177         0.504816890
     0.812902808         0.415220886         0.876987517
     0.497132331         0.332402915         0.748729110
     0.814301312         0.583832502         0.627824247
     0.814460695         0.332017481         0.128993124
     0.878465116         0.624763370         0.126895905
     0.627023876         0.414680213         0.993232131
     0.501414061         0.456434697         0.382558167
     0.688063562         0.415553600         0.370726436
     0.500412345         0.500713050         0.996119082
     0.500984132         0.332026869         0.250554830
     0.877227426         0.584511578         0.500663817
     0.936854482         0.331757069         0.377797067
     0.691473722         0.542657554         0.996014714
     0.687963665         0.498870373         0.872316182
     0.939741671         0.418910354         0.126680925
     0.877793968         0.415717423         0.748534560
     0.815589190         0.332496941         0.369427353
     0.687263966         0.458082259         0.499143839
     0.814603627         0.540956140         0.997027099
     0.688332856         0.333669931         0.373301953
     0.623027205         0.457059890         0.376428604
     0.497489840         0.624411643         0.118378721
     0.689721406         0.625950515         0.500164866
     0.877417266         0.331487477         0.504712582
     0.815714300         0.372099668         0.749727070
     0.626029074         0.332148105         0.999305665
     0.691416681         0.709035099         0.995203257
     0.623298168         0.957139850         0.125583872
     0.624617279         0.791216373         0.874162912
     0.499005854         0.749173760         0.995875418
     0.561705530         0.748063803         0.126301989
     0.686586618         0.835010231         0.628208816
     0.939024031         0.792607307         0.746421099
     0.813510716         0.873708725         0.748238087
     0.876288712         0.917129219         0.999050796
     0.624788702         0.666312218         0.506786883
     0.753645241         0.914918005         0.250750333
     0.874904037         0.873951495         0.127860054
     0.623123646         0.875957131         0.621104896
     0.496707350         0.915666342         0.749701262
     0.619676709         0.834834456         0.251090080
     0.937997699         0.831644416         0.124435730
     0.816563666         0.709933579         0.500930488
     0.686819971         0.707738876         0.747946203
     0.872666955         0.916349888         0.252305061
     0.497139543         0.668995023         0.504821837
     0.752117813         0.875759780         0.874284863
     0.688591540         0.665856421         0.869751811
     0.875666142         0.752958477         0.256780565
     0.497106254         0.956825018         0.625680208
     0.625028074         0.792954862         0.124964781
     0.939007759         0.792512059         0.989696920
     0.498639226         0.670354724         0.995813906
     0.561558068         0.875647366         0.746868908
     0.875399053         0.750472426         0.998305440
     0.624004126         0.918605208         0.752687812
     0.939482212         0.917739570         0.376337200
     0.752166390         0.706760824         0.623637617
     0.687488556         0.916397214         0.129257083
     0.560871959         0.791983247         0.999371290
     0.752227783         0.709576786         0.370652348
     0.561296344         0.710015118         0.509406209
     0.562203169         0.669339597         0.375466228
     0.751499057         0.834484935         0.498558372
     0.937453985         0.709659934         0.254817307
     0.939925969         0.874815106         0.253228247
     0.753047585         0.709978700         0.127534062
     0.686576307         0.915522337         0.371138364
     0.686801612         0.875906944         0.755297959
     0.874758363         0.709514916         0.127338424
     0.750023603         0.750304580         0.746756136
     0.752329350         0.793544590         0.627922237
     0.687395751         0.917033672         0.623327494
     0.809562445         0.792282999         0.254794985
     0.562270880         0.669246256         0.124890789
     0.875756145         0.958523393         0.872449458
     0.752192497         0.752121270         0.501534343
     0.814729989         0.873992085         0.500477493
     0.750472844         0.792755902         0.876547098
     0.876442432         0.667790890         0.997344196
     0.560927331         0.957066655         0.500429571
     0.625065625         0.751249373         0.743973017
     0.620307326         0.876184464         0.123624980
     0.690310061         0.794129670         0.251520246
     0.503557324         0.832840145         0.251502633
     0.686462820         0.709402084         0.506295919
     0.812747955         0.749769747         0.877306879
     0.496528715         0.668986082         0.744229555
     0.813170671         0.917005122         0.627694964
     0.814563751         0.666429043         0.129194781
     0.877996862         0.957927883         0.127070576
     0.626550078         0.748356044         0.996938944
     0.501605093         0.791719317         0.382213682
     0.686657012         0.749940038         0.371601611
     0.501135945         0.834184170         0.000271338
     0.499821007         0.668603301         0.251131952
     0.876718700         0.917894483         0.500825822
     0.936845660         0.665959954         0.377694368
     0.687708974         0.876746714         0.998876035
     0.686335325         0.832784474         0.876254618
     0.939664841         0.753151953         0.126859158
     0.877447069         0.750164747         0.748329520
     0.815582991         0.667103946         0.369211912
     0.685051858         0.792917073         0.498230368
     0.813734531         0.874672115         0.997528434
     0.688623130         0.668217659         0.374068052
     0.620964170         0.792683542         0.374458492