Cu  H 
 1.0000000000000000
    12.6270314399999997    0.0000000000000000    0.0000000000000000
     0.0000000000000000    7.7324460000000004    0.0000000000000000
     0.0000000000000000    0.0000000000000000    8.9286595599999998
 Cu  H  
  72   5
Cartesian
 -0.0184156163784277 -0.0159274596961134  0.0131327222914272
  2.0795925066233756  1.2725350998720193  0.7551725203602038
 -0.0269524328135377  1.2680479573514229  2.2377055275561424
  4.1637718931718499 -0.0159967594387782  1.5067175582678589
  2.0609843035078468 -0.0167871827129392  2.9831915739225363
  4.1437813353614317  1.3406422510677192  3.7005964608205320
 -0.0090063219388394 -0.0206709986568638  4.4698596078531336
  2.0607112467222946  1.2752169799499304  5.2140521986534845
 -0.0150778417261528  1.2694696430944876  6.7003611360800983
  4.1395086554216061 -0.0283550543877180  6.0281939148286492
  2.0602787038126484 -0.0112372929348769  7.4501899234628182
  4.1655384759994254  1.2695804912792530  8.2028694835593807
 -0.0190680358953662  2.5576688170515602  0.0085182442866225
  2.0515950802860194  3.8162667729146396  0.7649832950930279
 -0.0211396111685759  3.8494439373413414  2.2370302762741829
  4.1720480440268508  2.5467510191825822  1.5059778690096164
  2.0648664548681119  2.5636592719369067  2.9848214403179112
  4.1818485589319865  3.8414949867290731  3.7286503929358323
 -0.0141713514525984  2.5600960591485231  4.4641082039137601
  2.0912452165954658  3.8406443803055841  5.2112732437715046
 -0.0003793068067897  3.8394631027656092  6.7003821695807391
  4.1670018010552816  2.5640833060663315  5.9626426955992553
  2.0784022292730899  2.5417979875154666  7.4401749721259547
  4.1887410819191402  3.8136219315424840  8.1769679631413670
 -0.0318168158171905  5.1399349325905987  0.0090832378764137
  2.0521765077714504  6.4569592900793458  0.7759844518897990
 -0.0299176574692378  6.4192003491049077  2.2438697117285233
  4.2150215867029264  5.1227524327282561  1.5209778460844008
  2.0691526770858766  5.1320209324715860  2.9918992719651114
  4.1500856732190847  6.3529261508034178  3.6875090934284098
 -0.0132186358911969  5.1306177573751777  4.4697306195264659
  2.0653180235398634  6.4181337052306020  5.2193550940184030
 -0.0122200437153620  6.4220138563734110  6.7025512707149852
  4.1783539455550738  5.1132970540979885  5.9433585918913145
  2.0592072176747820  5.1324014027351019  7.4078412315528110
  4.2006589560954657  6.4395258126243258  8.1751022360416119
 -2.1143909848618079  1.2590990635068176  0.7603712612510515
 -4.2175436746426556 -0.0379067589220663  1.5289715246017945
 -6.3862811940528195 -0.1026508112685214  0.0901290355762382
 -6.3261789815743139  1.2734546336138393  2.2500264124026890
 -2.1120521670490131 -0.0228250537057674  2.9791979492094836
 -4.2035935470647026  1.2754309955566789  3.7083439103775890
 -2.0916997015832095  1.2625326736825282  5.1947394748285340
 -4.1481393324097704 -0.0254051591058978  5.8944379525755863
 -6.2302275388575019 -0.0354263694322329  4.4483296208652776
 -6.3624187166154682  1.2940528234229498  6.6480690647472542
 -2.0861805398904365 -0.0336923984941097  7.4367810796642591
 -4.1353695426809374  1.2628901582998435  8.2149237149700181
 -2.1183790354370209  3.8419495116351290  0.7588271887828721
 -4.2148465835013704  2.5553237999156622  1.5035338244838334
 -6.3796341052769598  2.6525131788662302  0.0722518434446116
 -6.3364973818826087  3.8370116025375154  2.2656822140647650
 -2.1163356793751578  2.5534860324115298  2.9733740705313476
 -4.2126256938061886  3.8417412419306132  3.6893897060072032
 -2.0871651131369049  3.8419226998504290  5.1684657445640294
 -4.2298423067747111  2.5346214041551467  5.9093990344539487
 -6.3238622126826467  2.5646646354730338  4.4677175066960366
 -6.3515537173391090  3.8476656866213315  6.6881240748260726
 -2.0807488912600749  2.5211185030389252  7.4565093431842566
 -4.2390704708274614  3.8397851371307077  8.2131847657920609
 -2.1237411765728207  6.4229447556772907  0.7580705567564827
 -4.2192040349742932  5.1168067011154870  1.4878992430239157
 -6.3210200431243670  5.1163665498744297  0.0166551481203107
 -6.3152046696539204  6.3951987695800998  2.2420191878563598
 -2.1174197245588893  5.1318602916075990  2.9735664967443340
 -4.1993531686208936  6.3993558586402655  3.7057388901710286
 -2.0894625206023534  6.4220233543878056  5.1910400519846469
 -4.2335066926887874  5.1410782043265781  5.9073241978332947
 -6.3192648662213111  5.1087833263925289  4.4554927548090335
 -6.3561675279501832  6.3590061510407043  6.6877346580979555
 -2.0847228933385531  5.1555002775953316  7.4508831105132076
 -4.1816089763690849  6.3803334304377062  8.2263303894534943
 78.9319977835563407  5.1528458616744359 26.7591279647718636
 58.0090277484967913  7.4158825633543941 25.1084837885855663
 93.1253072699486069  7.7055861055419923  4.4571080280947983
 95.1691820321100010  9.0470375542887282 17.2105942180251432
 47.3268210882570912  3.8313714626089368  6.7120090904874257
