Al  H 
 1.0000000000000000
    16.1521472931000005    0.0000000000000000    0.0000000000000000
     0.0000000000000000   16.1521472931000005    0.0000000000000000
     0.0000000000000000    0.0000000000000000   32.0000000000000000
 Al  H  
 256   4
Selective dynamics
Cartesian
  0.0000000000000000  0.0000000000000000  0.0000000000000000   F   F   F
  0.0000000000000000  0.0000000000000000  4.0380368229999997   F   F   F
  0.0082247104561495 -0.0043015074972756  8.1055112381750423   T   T   T
  0.0127264892386779 -0.0148857927975714 12.1964874236579881   T   T   T
  0.0000000000000000  4.0380368229999997  0.0000000000000000   F   F   F
  0.0000000000000000  4.0380368229999997  4.0380368229999997   F   F   F
  0.0962086747533750  3.9407412931108587  8.2005176044153192   T   T   T
  0.0213735720044874  4.0239272976748435 12.1834350048379534   T   T   T
  0.0000000000000000  8.0760736469999994  0.0000000000000000   F   F   F
  0.0000000000000000  8.0760736469999994  4.0380368229999997   F   F   F
 -0.0170752479766715  8.0489070492022528  8.1005949497164540   T   T   T
 -0.0070970654864090  8.0685338878120323 12.1776682715352216   T   T   T
  0.0000000000000000 12.1141104700000000  0.0000000000000000   F   F   F
  0.0000000000000000 12.1141104700000000  4.0380368229999997   F   F   F
 -0.0035669444712113 12.1100050031421684  8.1030344813603818   T   T   T
 -0.0065773559873573 12.1073701945652967 12.1872969355737144   T   T   T
  4.0380368229999997  0.0000000000000000  0.0000000000000000   F   F   F
  4.0380368229999997  0.0000000000000000  4.0380368229999997   F   F   F
  4.0748002387870210 -0.0272118183049643  8.1022130415693212   T   T   T
  4.0501798089874770 -0.0125957842500024 12.1912457947431854   T   T   T
  4.0380368229999997  4.0380368229999997  0.0000000000000000   F   F   F
  4.0380368229999997  4.0380368229999997  4.0380368229999997   F   F   F
  4.0474763056173195  4.0226940422565312  8.1063317142233284   T   T   T
  4.0543548386287354  4.0279719934316551 12.1917234501457639   T   T   T
  4.0380368229999997  8.0760736469999994  0.0000000000000000   F   F   F
  4.0380368229999997  8.0760736469999994  4.0380368229999997   F   F   F
  4.0266511915150716  8.0628136417835421  8.1035285721571011   T   T   T
  4.0316878143531278  8.0662702176020815 12.1803482911442345   T   T   T
  4.0380368229999997 12.1141104700000000  0.0000000000000000   F   F   F
  4.0380368229999997 12.1141104700000000  4.0380368229999997   F   F   F
  4.0026178799225960 12.0732349823768388  8.1204440721583566   T   T   T
  4.0274729004118983 12.1000084822827247 12.1981866179042235   T   T   T
  8.0760736469999994  0.0000000000000000  0.0000000000000000   F   F   F
  8.0760736469999994  0.0000000000000000  4.0380368229999997   F   F   F
  8.1670650119355823  0.0860287259906854  8.1888860581264407   T   T   T
  8.0849201511790039  0.0064721432754825 12.1851713755743667   T   T   T
  8.0760736469999994  4.0380368229999997  0.0000000000000000   F   F   F
  8.0760736469999994  4.0380368229999997  4.0380368229999997   F   F   F
  8.0665704384287782  4.0416129473239595  8.1190328428380951   T   T   T
  8.0810121500801415  4.0525770301873711 12.1997684365074335   T   T   T
  8.0760736469999994  8.0760736469999994  0.0000000000000000   F   F   F
  8.0760736469999994  8.0760736469999994  4.0380368229999997   F   F   F
  8.0698421515052381  8.0795681550413949  8.1028162090708271   T   T   T
  8.0681337147646364  8.0848505584307464 12.1859557402018677   T   T   T
  8.0760736469999994 12.1141104700000000  0.0000000000000000   F   F   F
  8.0760736469999994 12.1141104700000000  4.0380368229999997   F   F   F
  8.0603114581038717 12.1398963602140846  8.0965895735955993   T   T   T
  8.0676685778047990 12.1210586322888396 12.1817217326431635   T   T   T
 12.1141104700000000  0.0000000000000000  0.0000000000000000   F   F   F
 12.1141104700000000  0.0000000000000000  4.0380368229999997   F   F   F
 12.1265577084975096  0.0019259459169419  8.1139652308046699   T   T   T
 12.1307357392563304  0.0057666329833289 12.1938236127143416   T   T   T
 12.1141104700000000  4.0380368229999997  0.0000000000000000   F   F   F
 12.1141104700000000  4.0380368229999997  4.0380368229999997   F   F   F
 12.1441933963569344  4.0645732762839204  8.1484393153188215   T   T   T
 12.1286998429858119  4.0523240510210616 12.2260795765580852   T   T   T
 12.1141104700000000  8.0760736469999994  0.0000000000000000   F   F   F
 12.1141104700000000  8.0760736469999994  4.0380368229999997   F   F   F
 12.0753318907391982  8.1299552961608068  8.1298732329343526   T   T   T
 12.0949053908637243  8.1034060504957690 12.1964176677012368   T   T   T
 12.1141104700000000 12.1141104700000000  0.0000000000000000   F   F   F
 12.1141104700000000 12.1141104700000000  4.0380368229999997   F   F   F
 12.1033507783624668 12.1274791975871441  8.1046243636890321   T   T   T
 12.1072926746738787 12.1253885361309734 12.1841349727271080   T   T   T
  0.0000000000000000  2.0190184119999999  2.0190184119999999   F   F   F
  0.0118036287408269  2.0263456863079226  6.0974039957792705   T   T   T
  0.0259432849802365  1.9754679299291336 10.1803925308054168   T   T   T
 -0.0042344142154821  2.0289195191534555 14.2219399443161461   T   T   T
  0.0000000000000000  6.0570552350000000  2.0190184119999999   F   F   F
  0.0546590743413941  6.1106056992256601  6.0210409914610663   T   T   T
 -0.0145899960298903  6.0451468867464992 10.1360651399232058   T   T   T
  0.0158376276467508  6.0563987775759438 14.2012245646342183   T   T   T
  0.0000000000000000 10.0950920580000005  2.0190184119999999   F   F   F
 -0.0024612970106045 10.0907009065708024  6.0901855406865204   T   T   T
 -0.0126540211671275 10.0861248819530296 10.1459983570421173   T   T   T
 -0.0055267298651252 10.0911685429909674 14.2012112780568582   T   T   T
  0.0000000000000000 14.1331288809999993  2.0190184119999999   F   F   F
  0.0037225690528045 14.1288604530193496  6.0860239207745828   T   T   T
 -0.0005631026183793 14.1252342535511684 10.1560404356067799   T   T   T
  0.0010597142141581 14.1254182617408119 14.2099653147155536   T   T   T
  4.0380368229999997  2.0190184119999999  2.0190184119999999   F   F   F
  4.0190172806131859  2.0384225757189216  6.0821076370717879   T   T   T
  4.0610640794525521  2.0000629607837257 10.1614919654563707   T   T   T
  4.0494156705325066  2.0083090966720807 14.2069136461376520   T   T   T
  4.0380368229999997  6.0570552350000000  2.0190184119999999   F   F   F
  4.0317522468947660  6.0527488332921289  6.0892103903664507   T   T   T
  4.0337832043970696  6.0457190238663738 10.1418448518012845   T   T   T
  4.0363570627588148  6.0514302527262949 14.1993058278146211   T   T   T
  4.0380368229999997 10.0950920580000005  2.0190184119999999   F   F   F
  4.0418778843545677 10.1006871455258747  6.0856111639467381   T   T   T
  4.0235520763451023 10.0751749325019713 10.1580753013618921   T   T   T
  4.0307547623722471 10.0863681182053604 14.2064148212642589   T   T   T
  4.0380368229999997 14.1331288809999993  2.0190184119999999   F   F   F
  4.0561221775392129 14.1318605856890898  6.0980743475525996   T   T   T
  4.0115836269833354 14.1082755389729826 10.1865074715680493   T   T   T
  4.0356107238922618 14.1227307861310560 14.2147908472689775   T   T   T
  8.0760736469999994  2.0190184119999999  2.0190184119999999   F   F   F
  8.0630628020607489  1.9934803789200086  6.0986017803825812   T   T   T
  8.1018722547394599  2.0539739332781304 10.1833729380272384   T   T   T
  8.0835006271666430  2.0217863133061607 14.2093718668248474   T   T   T
  8.0760736469999994  6.0570552350000000  2.0190184119999999   F   F   F
  8.0586935016778334  6.0719646175058122  6.0876474347321574   T   T   T
  8.0748558204744949  6.0641059985706116 10.1539396235983936   T   T   T
  8.0642524402812086  6.0687353302427729 14.2101817315081682   T   T   T
  8.0760736469999994 10.0950920580000005  2.0190184119999999   F   F   F
  8.0676863557786369 10.1051618794656175  6.0892863979236598   T   T   T
  8.0656256523951928 10.1022087900848092 10.1451253938098134   T   T   T
  8.0695578679942788 10.0959238650332299 14.2027437066030675   T   T   T
  8.0760736469999994 14.1331288809999993  2.0190184119999999   F   F   F
  8.1235790112112305 14.0860728677781175  6.0274094100125089   T   T   T
  8.0665278886973439 14.1463197017390065 10.1335329074227083   T   T   T
  8.0737192832246372 14.1346866804510380 14.2020895876239202   T   T   T
 12.1141104700000000  2.0190184119999999  2.0190184119999999   F   F   F
 12.1020226802051578  1.9790243013399595  6.0841421775211320   T   T   T
 12.1379232469979588  2.0341155692297939 10.1745136103354845   T   T   T
 12.1218097129179387  2.0090311350549928 14.2099691208454111   T   T   T
 12.1141104700000000  6.0570552350000000  2.0190184119999999   F   F   F
 12.1251318156961609  6.0887727703688830  6.1012698663232054   T   T   T
 12.0855707086878805  6.0848385823667828 10.2169716523949834   T   T   T
 12.1095169547208474  6.0707334541289173 14.2498315024154820   T   T   T
 12.1141104700000000 10.0950920580000005  2.0190184119999999   F   F   F
 12.1176404914191487 10.0933314676900601  6.0861968583195374   T   T   T
 12.0967647159821645 10.1178805355514925 10.1599005823400699   T   T   T
 12.1008398443389762 10.1133186450054176 14.2097635691948270   T   T   T
 12.1141104700000000 14.1331288809999993  2.0190184119999999   F   F   F
 12.1101565349091604 14.1387458452243582  6.0895336281977857   T   T   T
 12.1119069450229961 14.1402346434280659 10.1465711118611033   T   T   T
 12.1119367582893673 14.1388209024899112 14.2025305100585282   T   T   T
  2.0190184119999999  0.0000000000000000  2.0190184119999999   F   F   F
  2.0261074239921415 -0.0067758002293066  6.0890151846749161   T   T   T
  2.0368575673872074 -0.0235149940237217 10.1569600600133896   T   T   T
  2.0207666632714418 -0.0065852412630122 14.2106984847638564   T   T   T
  2.0190184119999999  4.0380368229999997  2.0190184119999999   F   F   F
  2.0014670763997340  4.0402230719788284  6.0984119913393906   T   T   T
  2.0587918197449078  4.0112285997721919 10.1825052359762509   T   T   T
  2.0356901270786505  4.0250306616465252 14.2066303381962733   T   T   T
  2.0190184119999999  8.0760736469999994  2.0190184119999999   F   F   F
  2.0380789494439133  8.0967620067362827  6.0815937262111932   T   T   T
  2.0086098081065935  8.0619520402850409 10.1502041467186768   T   T   T
  2.0144187286311177  8.0684287502855607 14.1961568044563666   T   T   T
  2.0190184119999999 12.1141104700000000  2.0190184119999999   F   F   F
  2.0211309538890108 12.1136772696158719  6.0860289860305237   T   T   T
  2.0040835485774675 12.0967463082217446 10.1622717960882163   T   T   T
  2.0149065008353304 12.1038331003516184 14.2114188953116543   T   T   T
  6.0570552350000000  0.0000000000000000  2.0190184119999999   F   F   F
  6.0053149075508765  0.0454432800590956  6.0269945132342659   T   T   T
  6.0754226237219662 -0.0134434785834356 10.1370148101942732   T   T   T
  6.0642487556803113 -0.0063668916065914 14.2071354753573615   T   T   T
  6.0570552350000000  4.0380368229999997  2.0190184119999999   F   F   F
  6.0630368897299673  4.0314755709431873  6.0910626274180046   T   T   T
  6.0603892248198115  4.0335031097356939 10.1542509683856714   T   T   T
  6.0602117313443316  4.0369283929282966 14.2068078577513432   T   T   T
  6.0570552350000000  8.0760736469999994  2.0190184119999999   F   F   F
  6.0482765747793943  8.0805457837818437  6.0846354551951727   T   T   T
  6.0494382474334945  8.0701130865508119 10.1504343876249408   T   T   T
  6.0484631301760849  8.0771080631999297 14.2038506675647724   T   T   T
  6.0570552350000000 12.1141104700000000  2.0190184119999999   F   F   F
  6.0570687939755503 12.1320742946384179  6.0969582727284859   T   T   T
  6.0389052987528213 12.0817915143031929 10.1822159778750763   T   T   T
  6.0520754246215205 12.1072268623973489 14.2097287277636362   T   T   T
 10.0950920580000005  0.0000000000000000  2.0190184119999999   F   F   F
 10.0744773338026921 -0.0084414576917090  6.0973195062158032   T   T   T
 10.1338812724877467  0.0248803363840403 10.1796230657971876   T   T   T
 10.1013665360975011  0.0047170784247754 14.2052054377608652   T   T   T
 10.0950920580000005  4.0380368229999997  2.0190184119999999   F   F   F
 10.0319797290522885  4.0436859306618889  6.0864002590865693   T   T   T
 10.1079057603378981  4.0561149225254445 10.1755547029822662   T   T   T
 10.0831200219323094  4.0451936788535408 14.2145689798280568   T   T   T
 10.0950920580000005  8.0760736469999994  2.0190184119999999   F   F   F
 10.0861136076570865  8.0902115778403161  6.0859378447965016   T   T   T
 10.0747819863408807  8.0916873591131786 10.1533908327456075   T   T   T
 10.1024589870910724  8.0719150469291279 14.2235478083683358   T   T   T
 10.0950920580000005 12.1141104700000000  2.0190184119999999   F   F   F
 10.1133696391683934 12.0968698804772288  6.0820775795162341   T   T   T
 10.0851920911880910 12.1272937524629043 10.1513758900877846   T   T   T
 10.0841178122006792 12.1244880797070014 14.2001535593591282   T   T   T
 14.1331288809999993  0.0000000000000000  2.0190184119999999   F   F   F
 14.1446082931840742 -0.0033166411874548  6.0903488423543797   T   T   T
 14.1432275338846427  0.0033022464703203 10.1487234918099780   T   T   T
 14.1454240559229056 -0.0061945279165647 14.2073620607563225   T   T   T
 14.1331288809999993  4.0380368229999997  2.0190184119999999   F   F   F
 14.1335887329362873  4.0099826996518368  6.0505909920519150   T   T   T
 14.1577318960688459  4.0508575506157429 10.1689701844909965   T   T   T
 14.1451179109247729  4.0385220972961777 14.2431305313092249   T   T   T
 14.1331288809999993  8.0760736469999994  2.0190184119999999   F   F   F
 14.1403029828371309  8.0709048476539422  6.1002081617536259   T   T   T
 14.1124143789076406  8.1041741486651269 10.1867794174046260   T   T   T
 14.1298950485050430  8.0973693130135835 14.2080288843385478   T   T   T
 14.1331288809999993 12.1141104700000000  2.0190184119999999   F   F   F
 14.1324404499574978 12.1160772273655581  6.0872474929108398   T   T   T
 14.1239054329891722 12.1183591087887610 10.1522017272327787   T   T   T
 14.1283303069851467 12.1178315457651458 14.2065691128696656   T   T   T
  2.0190184119999999  2.0190184119999999  0.0000000000000000   F   F   F
  2.0190184119999999  2.0190184119999999  4.0380368229999997   F   F   F
  2.0647165697796308  1.9674549009677671  8.1215900360254558   T   T   T
  2.0341680053809306  1.9996945168092706 12.1964468878016614   T   T   T
  2.0190184119999999  6.0570552350000000  0.0000000000000000   F   F   F
  2.0190184119999999  6.0570552350000000  4.0380368229999997   F   F   F
  1.9974660952353174  6.0386694628709030  8.0993076009859486   T   T   T
  2.0158072770808313  6.0466432627865743 12.1773145021455118   T   T   T
  2.0190184119999999 10.0950920580000005  0.0000000000000000   F   F   F
  2.0190184119999999 10.0950920580000005  4.0380368229999997   F   F   F
  1.9977229414350286 10.0757003980286086  8.1074581253953433   T   T   T
  2.0094945424566788 10.0848246332368614 12.1844613360522853   T   T   T
  2.0190184119999999 14.1331288809999993  0.0000000000000000   F   F   F
  2.0190184119999999 14.1331288809999993  4.0380368229999997   F   F   F
  2.0238119792590927 14.1189642847489214  8.1064138572972855   T   T   T
  2.0123201033636429 14.1196009407986942 12.1992899864046365   T   T   T
  6.0570552350000000  2.0190184119999999  0.0000000000000000   F   F   F
  6.0570552350000000  2.0190184119999999  4.0380368229999997   F   F   F
  6.0730316396490727  1.9921036235067007  8.1032776183853841   T   T   T
  6.0693566572000339  2.0137094534339859 12.1865887937896300   T   T   T
  6.0570552350000000  6.0570552350000000  0.0000000000000000   F   F   F
  6.0570552350000000  6.0570552350000000  4.0380368229999997   F   F   F
  6.0549816306182294  6.0569911457676042  8.1018595607263784   T   T   T
  6.0538364465563204  6.0529220914304744 12.1832799753072205   T   T   T
  6.0570552350000000 10.0950920580000005  0.0000000000000000   F   F   F
  6.0570552350000000 10.0950920580000005  4.0380368229999997   F   F   F
  6.0452541727713127 10.0934057622875599  8.1025730133972669   T   T   T
  6.0475794690690874 10.0842334683088151 12.1909915158128701   T   T   T
  6.0570552350000000 14.1331288809999993  0.0000000000000000   F   F   F
  6.0570552350000000 14.1331288809999993  4.0380368229999997   F   F   F
  5.9806277022799286 14.0479409807304396  8.1879770405047729   T   T   T
  6.0545032026746233 14.1260252379739253 12.1890009568349313   T   T   T
 10.0950920580000005  2.0190184119999999  0.0000000000000000   F   F   F
 10.0950920580000005  2.0190184119999999  4.0380368229999997   F   F   F
 10.1427429327258363  2.0694535463335146  8.1159154793629629   T   T   T
 10.1082517911331315  2.0319988794371215 12.1975990181269403   T   T   T
 10.0950920580000005  6.0570552350000000  0.0000000000000000   F   F   F
 10.0950920580000005  6.0570552350000000  4.0380368229999997   F   F   F
 10.1022703256809478  6.0613590163247917  8.1056404343198167   T   T   T
 10.0745391306325747  6.0762966019197204 12.1973605988107465   T   T   T
 10.0950920580000005 10.0950920580000005  0.0000000000000000   F   F   F
 10.0950920580000005 10.0950920580000005  4.0380368229999997   F   F   F
 10.0711290848309734 10.1177176381831675  8.1073895201618988   T   T   T
 10.0816198612019825 10.1048822372022595 12.1866426424120800   T   T   T
 10.0950920580000005 14.1331288809999993  0.0000000000000000   F   F   F
 10.0950920580000005 14.1331288809999993  4.0380368229999997   F   F   F
 10.0741781044076575 14.1489229324869701  8.0988546009333469   T   T   T
 10.0923962676569161 14.1421786691946689 12.1794072446807853   T   T   T
 14.1331288809999993  2.0190184119999999  0.0000000000000000   F   F   F
 14.1331288809999993  2.0190184119999999  4.0380368229999997   F   F   F
 14.1434602040601156  2.0497232271876422  8.1013678410371313   T   T   T
 14.1521258879684027  2.0122149733135153 12.1849737674070671   T   T   T
 14.1331288809999993  6.0570552350000000  0.0000000000000000   F   F   F
 14.1331288809999993  6.0570552350000000  4.0380368229999997   F   F   F
 14.0364364985803167  6.1409158921791969  8.1962746908566650   T   T   T
 14.1266057063380028  6.0586076062238012 12.2220096419297448   T   T   T
 14.1331288809999993 10.0950920580000005  0.0000000000000000   F   F   F
 14.1331288809999993 10.0950920580000005  4.0380368229999997   F   F   F
 14.1224041696702614 10.1000511216942890  8.1061657873049615   T   T   T
 14.1218404456282016 10.1083567359756650 12.1924610893050591   T   T   T
 14.1331288809999993 14.1331288809999993  0.0000000000000000   F   F   F
 14.1331288809999993 14.1331288809999993  4.0380368229999997   F   F   F
 14.1369407569418399 14.1329065385640948  8.1024977784431353   T   T   T
 14.1315947314435473 14.1363696542092079 12.1852273147859247   T   T   T
 13.1254274748597624  5.0492217966875037 15.3025768389739767   T   T   T
 15.1983066604683081  5.0898988866156074  7.1971003225658485   T   T   T
  7.0674737329155501 15.1446523201532592  7.1482970378236610   T   T   T
 11.9699662833427425  4.0321108427782253  6.1090540910156221   T   T   T
