Al  H 
 1.0000000000000000
    16.1521472931000005    0.0000000000000000    0.0000000000000000
     0.0000000000000000   16.1521472931000005    0.0000000000000000
     0.0000000000000000    0.0000000000000000   32.0000000000000000
 Al  H  
 256   4
Selective dynamics
Cartesian
  0.0000000000000000  0.0000000000000000  0.0000000000000000   F   F   F
  0.0000000000000000  0.0000000000000000  4.0380368229999997   F   F   F
 -0.0281686928645205  0.0131028256443511  8.0975420522911676   T   T   T
  0.0135975083846193 -0.0049502396526900 12.1766705394454444   T   T   T
  0.0000000000000000  4.0380368229999997  0.0000000000000000   F   F   F
  0.0000000000000000  4.0380368229999997  4.0380368229999997   F   F   F
  0.0366078968007098  4.0172709786186953  8.1102135828584085   T   T   T
  0.0199293650286063  4.0274991971671419 12.1995348067774962   T   T   T
  0.0000000000000000  8.0760736469999994  0.0000000000000000   F   F   F
  0.0000000000000000  8.0760736469999994  4.0380368229999997   F   F   F
  0.0018450502759387  8.0626279089119119  8.0953630716502687   T   T   T
  0.0108710498947445  8.0360031841795276 12.1838683031902590   T   T   T
  0.0000000000000000 12.1141104700000000  0.0000000000000000   F   F   F
  0.0000000000000000 12.1141104700000000  4.0380368229999997   F   F   F
  0.0060131605235656 12.1111404035777461  8.1179154234152673   T   T   T
 -0.0430064991721397 12.0933358923842889 12.2307096064276362   T   T   T
  4.0380368229999997  0.0000000000000000  0.0000000000000000   F   F   F
  4.0380368229999997  0.0000000000000000  4.0380368229999997   F   F   F
  4.0328995808090857 -0.0173159090888007  8.1109396528667315   T   T   T
  4.0637755087233574  0.0318286595965867 12.2038263093487878   T   T   T
  4.0380368229999997  4.0380368229999997  0.0000000000000000   F   F   F
  4.0380368229999997  4.0380368229999997  4.0380368229999997   F   F   F
  4.0474772933780656  4.0368601730855183  8.0973341514739410   T   T   T
  4.0465463324806459  4.0436692089499102 12.1884857427573170   T   T   T
  4.0380368229999997  8.0760736469999994  0.0000000000000000   F   F   F
  4.0380368229999997  8.0760736469999994  4.0380368229999997   F   F   F
  4.0355270655547351  8.0822132690670685  8.1000168946650462   T   T   T
  4.0252275287802348  8.0829203762792741 12.1839860909435185   T   T   T
  4.0380368229999997 12.1141104700000000  0.0000000000000000   F   F   F
  4.0380368229999997 12.1141104700000000  4.0380368229999997   F   F   F
  4.0893884759669445 12.0527761352170124  8.0381391937515687   T   T   T
  4.0226467469443845 12.1256588144151269 12.1689637176899161   T   T   T
  8.0760736469999994  0.0000000000000000  0.0000000000000000   F   F   F
  8.0760736469999994  0.0000000000000000  4.0380368229999997   F   F   F
  8.0686610233939398  0.0087178067903420  8.0979776503846335   T   T   T
  8.0835497136116814  0.0218398381585061 12.1987708557700714   T   T   T
  8.0760736469999994  4.0380368229999997  0.0000000000000000   F   F   F
  8.0760736469999994  4.0380368229999997  4.0380368229999997   F   F   F
  8.0755541884173319  4.0477810332022939  8.0946532680018972   T   T   T
  8.0673890878988725  4.0396923516403431 12.1881007620254334   T   T   T
  8.0760736469999994  8.0760736469999994  0.0000000000000000   F   F   F
  8.0760736469999994  8.0760736469999994  4.0380368229999997   F   F   F
  8.0467645039289337  8.0946586373411478  8.1535076376125808   T   T   T
  8.0566987807566779  8.0822451684079208 12.1821400977039822   T   T   T
  8.0760736469999994 12.1141104700000000  0.0000000000000000   F   F   F
  8.0760736469999994 12.1141104700000000  4.0380368229999997   F   F   F
  8.0480368279425214 12.1419633213977836  8.1096519903410886   T   T   T
  8.0683386026231680 12.1258461900579118 12.1901706566476502   T   T   T
 12.1141104700000000  0.0000000000000000  0.0000000000000000   F   F   F
 12.1141104700000000  0.0000000000000000  4.0380368229999997   F   F   F
 12.1127186203183701 -0.0143600277274978  8.0978500232157646   T   T   T
 12.1227745543411523 -0.0203757400523787 12.1985860088752176   T   T   T
 12.1141104700000000  4.0380368229999997  0.0000000000000000   F   F   F
 12.1141104700000000  4.0380368229999997  4.0380368229999997   F   F   F
 12.1355326724518751  3.9953480528189482  8.1176527264393989   T   T   T
 12.1206188656850138  4.0301008304037023 12.2275713519100524   T   T   T
 12.1141104700000000  8.0760736469999994  0.0000000000000000   F   F   F
 12.1141104700000000  8.0760736469999994  4.0380368229999997   F   F   F
 12.1034418162886688  8.0759057905292781  8.1032959202406509   T   T   T
 12.1050415215649885  8.0943805320862658 12.2175552980875342   T   T   T
 12.1141104700000000 12.1141104700000000  0.0000000000000000   F   F   F
 12.1141104700000000 12.1141104700000000  4.0380368229999997   F   F   F
 12.1060679544232439 12.1094311184845651  8.1123383779551972   T   T   T
 12.0533814177903871 12.1668780939571146 12.1501804035700793   T   T   T
  0.0000000000000000  2.0190184119999999  2.0190184119999999   F   F   F
  0.0089959204727884  2.0081451367467182  6.0884000047735478   T   T   T
  0.0305023530092254  1.9919789862957760 10.1585061792269435   T   T   T
  0.0142249881021245  2.0112581706284223 14.2050411175209970   T   T   T
  0.0000000000000000  6.0570552350000000  2.0190184119999999   F   F   F
  0.0024937333448765  6.0487882557730703  6.0954176593625311   T   T   T
  0.0309300453932950  6.0425313389324815 10.1630594752756558   T   T   T
 -0.0088978748166990  6.0519393968897477 14.2172108778128852   T   T   T
  0.0000000000000000 10.0950920580000005  2.0190184119999999   F   F   F
 -0.0096107634593904 10.0834176059659750  6.0911170899193410   T   T   T
 -0.0127141583469482 10.0498889346914630 10.1424256797615406   T   T   T
 -0.0342292517977492 10.0822589940926033 14.2253454599365128   T   T   T
  0.0000000000000000 14.1331288809999993  2.0190184119999999   F   F   F
 -0.0340354450079969 14.1347618892282423  6.0606518645229723   T   T   T
  0.0169732554726106 14.1079992843094271 10.1455742163118661   T   T   T
  0.0743006087245330 14.1872261039642620 14.2016837092839996   T   T   T
  4.0380368229999997  2.0190184119999999  2.0190184119999999   F   F   F
  4.0475681990878449  2.0183075322945836  6.0870404634242092   T   T   T
  4.0524121986844301  2.0195426673671100 10.1506142230026004   T   T   T
  4.0521766434633602  2.0342470245943254 14.2155018973500020   T   T   T
  4.0380368229999997  6.0570552350000000  2.0190184119999999   F   F   F
  4.0443474974912776  6.0575752389602746  6.0828456792093277   T   T   T
  4.0407571668454754  6.0592785064123298 10.1462296260045246   T   T   T
  4.0342666780622904  6.0644772042554616 14.2099780122148172   T   T   T
  4.0380368229999997 10.0950920580000005  2.0190184119999999   F   F   F
  4.0443142580171951 10.0729965078594539  6.0605394584088117   T   T   T
  4.0146793185975458 10.1204948654342601 10.1406542171069898   T   T   T
  4.0275585168398127 10.1048967547358881 14.2050639377953125   T   T   T
  4.0380368229999997 14.1331288809999993  2.0190184119999999   F   F   F
  4.0208062342676154 14.1305873648318840  6.0992073553242747   T   T   T
  4.0975333266592679 14.1985197145179782 10.2088086137571370   T   T   T
  4.0475649730455752 14.1406156271965386 14.2041263427564086   T   T   T
  8.0760736469999994  2.0190184119999999  2.0190184119999999   F   F   F
  8.0888184329915518  2.0337943095905358  6.0867351823335314   T   T   T
  8.0758288125185924  2.0280235253585821 10.1500007960985279   T   T   T
  8.0899331056551009  2.0268762450279589 14.2168787109031705   T   T   T
  8.0760736469999994  6.0570552350000000  2.0190184119999999   F   F   F
  8.1103521245771475  6.0808984988958983  6.0873758904529467   T   T   T
  8.0669142061292352  6.0727615398320633 10.1488121309304873   T   T   T
  8.0479092401565850  6.0439249002755151 14.1955395299487517   T   T   T
  8.0760736469999994 10.0950920580000005  2.0190184119999999   F   F   F
  8.0438552308269244 10.1376900084052668  6.1018529934192971   T   T   T
  8.0552581005671531 10.1219180244793723 10.1806106512161527   T   T   T
  8.0662638080836206 10.1003230746348400 14.2105779446558493   T   T   T
  8.0760736469999994 14.1331288809999993  2.0190184119999999   F   F   F
  8.0659074699597380 14.1435643668525390  6.0912438390271406   T   T   T
  8.0572229874892685 14.1530352489781723 10.1524862613044888   T   T   T
  8.0920080579831559 14.1361204938430696 14.2220090569832571   T   T   T
 12.1141104700000000  2.0190184119999999  2.0190184119999999   F   F   F
 12.1194440790744355  2.0103476072484381  6.0820252875409073   T   T   T
 12.1228002418862815  1.9758174733417566 10.1617908964791113   T   T   T
 12.1257880623445775  2.0012893655475601 14.2270462118282630   T   T   T
 12.1141104700000000  6.0570552350000000  2.0190184119999999   F   F   F
 12.2256486573231005  5.9624843178940212  6.1719872100700428   T   T   T
 12.1182565876786867  6.0865622204534544 10.1658289711325747   T   T   T
 12.1039948423490991  6.0645933591305203 14.2318047281183446   T   T   T
 12.1141104700000000 10.0950920580000005  2.0190184119999999   F   F   F
 12.0963961695642173 10.0734573614317995  6.0871533242978568   T   T   T
 12.1136101350497771 10.1000904199604733 10.1819415635270705   T   T   T
 12.0088298424612869  9.9946649514636121 14.3523458773134927   T   T   T
 12.1141104700000000 14.1331288809999993  2.0190184119999999   F   F   F
 12.1101109877276212 14.1271945835654762  6.0852802322198531   T   T   T
 12.1016930630547535 14.1440651844091594 10.1325968219518696   T   T   T
 12.1205762724466481 14.1119743331548655 14.2103474761172208   T   T   T
  2.0190184119999999  0.0000000000000000  2.0190184119999999   F   F   F
  2.0107205491278157  0.0207980780013533  6.0602896802134421   T   T   T
  2.0371580156582216 -0.0269515947547978 10.1355043937299083   T   T   T
  2.0514469966348150  0.0160251611376135 14.1915169780255201   T   T   T
  2.0190184119999999  4.0380368229999997  2.0190184119999999   F   F   F
  2.0300260907995931  4.0308851029911086  6.0824913346334704   T   T   T
  2.0367728794179958  4.0330444192479531 10.1536442752818257   T   T   T
  2.0268504851374849  4.0393369340147141 14.2137882987550181   T   T   T
  2.0190184119999999  8.0760736469999994  2.0190184119999999   F   F   F
  2.0164085524862032  8.0765706279529059  6.0900935968596466   T   T   T
  2.0241764605610721  8.0712179688851418 10.1475615017224996   T   T   T
  2.0054405485260971  8.0718142882025248 14.2216146657993256   T   T   T
  2.0190184119999999 12.1141104700000000  2.0190184119999999   F   F   F
  2.0160368866608405 12.1170140905496400  6.1009912418887637   T   T   T
  1.9425020157614370 12.0464380419711627 10.2216477636501235   T   T   T
  2.0129128879518490 12.1164259680254318 14.2092737047073499   T   T   T
  6.0570552350000000  0.0000000000000000  2.0190184119999999   F   F   F
  6.0545882530732476  0.0060878799843798  6.0850984964899499   T   T   T
  6.0832448279790547  0.0333351342265983 10.1572350628783763   T   T   T
  6.0770954430686315  0.0141680497476670 14.2265732727840781   T   T   T
  6.0570552350000000  4.0380368229999997  2.0190184119999999   F   F   F
  6.0704880903100626  4.0499350838967993  6.0803092860770533   T   T   T
  6.0604856161790117  4.0425374633876121 10.1490897674017919   T   T   T
  6.0568103141975103  4.0423229991622742 14.2091046131792389   T   T   T
  6.0570552350000000  8.0760736469999994  2.0190184119999999   F   F   F
  6.0643737044611390  8.0738102261565583  6.0895243473876439   T   T   T
  6.0322480784923505  8.0908881856022568 10.1642449327313287   T   T   T
  6.0403653275152189  8.0831011216715876 14.2022007229490388   T   T   T
  6.0570552350000000 12.1141104700000000  2.0190184119999999   F   F   F
  6.0604416196247923 12.1254845532554629  6.0612897011998275   T   T   T
  6.0214335108761619 12.1363569964773124 10.1428694547131908   T   T   T
  6.0465509059111389 12.1184175234368094 14.2058774309329596   T   T   T
 10.0950920580000005  0.0000000000000000  2.0190184119999999   F   F   F
 10.0940773407454056  0.0062238805102652  6.0892850520796751   T   T   T
 10.0849021533201118  0.0024372564484853 10.1505054651839224   T   T   T
 10.1089881271986304  0.0028285331075193 14.2157118183485505   T   T   T
 10.0950920580000005  4.0380368229999997  2.0190184119999999   F   F   F
 10.1139237147863366  4.0647971859030099  6.0750312193024190   T   T   T
 10.0735081572089413  4.0452477353338727 10.1486759984235935   T   T   T
 10.0856349404418495  4.0382575083638121 14.2237120768477023   T   T   T
 10.0950920580000005  8.0760736469999994  2.0190184119999999   F   F   F
  9.9921158271751818  8.1865768868602213  6.1862666707621630   T   T   T
 10.0822099610611939  8.1019617353119848 10.1684957910143741   T   T   T
 10.0217125995193452  8.0188232666174475 14.2091176291318995   T   T   T
 10.0950920580000005 12.1141104700000000  2.0190184119999999   F   F   F
 10.0876742834012880 12.1187359788037288  6.0947526133434593   T   T   T
 10.0631574763300264 12.1450160144990935 10.1477857571286521   T   T   T
 10.1078640516029310 12.1129054328255723 14.2100667250459214   T   T   T
 14.1331288809999993  0.0000000000000000  2.0190184119999999   F   F   F
 14.1251637734713569 -0.0027456518416312  6.0915569734123887   T   T   T
 14.1480841978202907 -0.0367990863696103 10.1641414651408901   T   T   T
 14.1498770324543415 -0.0146735127174652 14.2100377426342046   T   T   T
 14.1331288809999993  4.0380368229999997  2.0190184119999999   F   F   F
 14.1835911941790389  3.9929871680497766  6.0943322577294081   T   T   T
 14.1799756122805185  4.0157345309009909 10.1679012198047598   T   T   T
 14.1487040056796864  4.0245669598228426 14.2294424451872725   T   T   T
 14.1331288809999993  8.0760736469999994  2.0190184119999999   F   F   F
 14.1126875105870031  8.0549439080850984  6.0874119630229258   T   T   T
 14.1377702603116386  8.0552852405583728 10.1412354264489846   T   T   T
 14.1200278109999111  8.0771500362012763 14.2173668990681996   T   T   T
 14.1331288809999993 12.1141104700000000  2.0190184119999999   F   F   F
 14.1234757559320325 12.0965060344166329  6.0961929070156025   T   T   T
 14.1233250252289810 12.0947983847640508 10.1797565022691749   T   T   T
 14.2268260693121888 12.2101721843093678 14.3647541985929763   T   T   T
  2.0190184119999999  2.0190184119999999  0.0000000000000000   F   F   F
  2.0190184119999999  2.0190184119999999  4.0380368229999997   F   F   F
  2.0341523908999983  2.0059766173853801  8.1009203972448187   T   T   T
  2.0369213940996214  2.0189842525595769 12.1802184878682507   T   T   T
  2.0190184119999999  6.0570552350000000  0.0000000000000000   F   F   F
  2.0190184119999999  6.0570552350000000  4.0380368229999997   F   F   F
  2.0305044978495923  6.0519367884696340  8.0992023046714117   T   T   T
  2.0294305301293161  6.0481711870637387 12.1948636620448312   T   T   T
  2.0190184119999999 10.0950920580000005  0.0000000000000000   F   F   F
  2.0190184119999999 10.0950920580000005  4.0380368229999997   F   F   F
  2.0214979877851111 10.1097693597820584  8.1089497212639525   T   T   T
  1.9948538008256202 10.0678674416973433 12.2123661169595845   T   T   T
  2.0190184119999999 14.1331288809999993  0.0000000000000000   F   F   F
  2.0190184119999999 14.1331288809999993  4.0380368229999997   F   F   F
  1.9397958615163264 14.1994961455335176  8.0321525878009350   T   T   T
  2.0372663393790771 14.1265294655736540 12.1583945356129952   T   T   T
  6.0570552350000000  2.0190184119999999  0.0000000000000000   F   F   F
  6.0570552350000000  2.0190184119999999  4.0380368229999997   F   F   F
  6.0575621041095991  2.0233028359981882  8.0960159588079836   T   T   T
  6.0700154361209604  2.0328348418646693 12.1952818300715755   T   T   T
  6.0570552350000000  6.0570552350000000  0.0000000000000000   F   F   F
  6.0570552350000000  6.0570552350000000  4.0380368229999997   F   F   F
  6.0626537129541713  6.0636584919375975  8.0961929030964725   T   T   T
  6.0472195923136294  6.0625197089206804 12.1800487205857113   T   T   T
  6.0570552350000000 10.0950920580000005  0.0000000000000000   F   F   F
  6.0570552350000000 10.0950920580000005  4.0380368229999997   F   F   F
  6.0632736496172432 10.0871304063986713  8.1049479595400697   T   T   T
  6.0408799454615885 10.1057140521075119 12.1862190949802365   T   T   T
  6.0570552350000000 14.1331288809999993  0.0000000000000000   F   F   F
  6.0570552350000000 14.1331288809999993  4.0380368229999997   F   F   F
  6.0279020977744375 14.1390156603982593  8.1114239127482541   T   T   T
  6.0833802885939328 14.1524865556993813 12.2104933690179536   T   T   T
 10.0950920580000005  2.0190184119999999  0.0000000000000000   F   F   F
 10.0950920580000005  2.0190184119999999  4.0380368229999997   F   F   F
 10.1074620450288943  2.0342850635053340  8.1148755550404807   T   T   T
 10.1105628242798282  2.0285226511815653 12.1834022730259051   T   T   T
 10.0950920580000005  6.0570552350000000  0.0000000000000000   F   F   F
 10.0950920580000005  6.0570552350000000  4.0380368229999997   F   F   F
 10.1243707777133665  6.0643355901713827  8.1100188873583470   T   T   T
 10.0972183650000940  6.0457959400403851 12.1768951764782276   T   T   T
 10.0950920580000005 10.0950920580000005  0.0000000000000000   F   F   F
 10.0950920580000005 10.0950920580000005  4.0380368229999997   F   F   F
 10.0737224221630211 10.1413050091848778  8.1553850624905326   T   T   T
 10.0976451239955534 10.1048092018051001 12.2117563685960544   T   T   T
 10.0950920580000005 14.1331288809999993  0.0000000000000000   F   F   F
 10.0950920580000005 14.1331288809999993  4.0380368229999997   F   F   F
 10.0815098539088162 14.1430346804777081  8.0991436315735452   T   T   T
 10.0728028698436454 14.1637193412981368 12.1812954488417624   T   T   T
 14.1331288809999993  2.0190184119999999  0.0000000000000000   F   F   F
 14.1331288809999993  2.0190184119999999  4.0380368229999997   F   F   F
 14.1295826293128908  2.0105222165800347  8.1312284861761448   T   T   T
 14.1382915888093361  2.0110797349676992 12.1873839985096541   T   T   T
 14.1331288809999993  6.0570552350000000  0.0000000000000000   F   F   F
 14.1331288809999993  6.0570552350000000  4.0380368229999997   F   F   F
 14.1699688153275254  6.0205834254824575  8.1563445828050298   T   T   T
 14.1274331537741613  6.0407685799350475 12.1910438148416240   T   T   T
 14.1331288809999993 10.0950920580000005  0.0000000000000000   F   F   F
 14.1331288809999993 10.0950920580000005  4.0380368229999997   F   F   F
 14.1279700000238098 10.0890159719473900  8.1144236294595107   T   T   T
 14.1713244609416691 10.0288862508271066 12.1631717400237243   T   T   T
 14.1331288809999993 14.1331288809999993  0.0000000000000000   F   F   F
 14.1331288809999993 14.1331288809999993  4.0380368229999997   F   F   F
 14.1324424991387598 14.1149710882751780  8.1079560710025049   T   T   T
 14.1393995235322087 14.1069637980779206 12.2056112092951938   T   T   T
  3.0071132569844079 13.1236606692381752  9.1223708941362460   T   T   T
 13.1191736507858394 11.1073572523411865 13.2754691888102894   T   T   T
 11.1014808770401991  7.0699832917365857  5.2131773730614306   T   T   T
 12.1155341468057962  4.0639654885309673 10.0797485576518469   T   T   T
