Cu  H 
 1.0000000000000000
    12.6270314399999997    0.0000000000000000    0.0000000000000000
     0.0000000000000000    7.7324460000000004    0.0000000000000000
     0.0000000000000000    0.0000000000000000    8.9286595599999998
 Cu  H  
  72   5
Cartesian
 -0.0119430146540982 -0.0620202102876706 -0.0061010990402479
  2.1312355004596326  1.2079609281769885  0.7382335263343174
 -0.0318328157172809  1.1990940467226920  2.2392113000746252
  4.2080579953177244 -0.0453159571447720  1.4841070949504191
  2.1112134411638364 -0.0614591543963202  2.9770355037840472
  4.2228772949600479  1.2445899507395324  3.6871182154631010
 -0.0047657065626198 -0.0595525599361562  4.4671472517226656
  2.0853788248900869  1.2241368605903296  5.1594272315288388
 -0.0191621791100729  1.2158494473785271  6.7049937273698585
  4.2442048303006850 -0.0733903037081897  5.9273122382439034
  2.0776657084946564 -0.0743293073697329  7.4486229855408315
  4.2310121480046829  1.2471586363985714  8.2089320159929091
 -0.0037090535957091  2.5101969629011682 -0.0190289390271987
  2.1358219684524933  3.8586324387439861  0.7221122779385408
 -0.0308053064593600  3.8444748828406938  2.2355063598854574
  4.2256743136438866  2.5469243303425735  1.4766785794987241
  2.1530347643472383  2.5297923322156746  2.9921355177902664
  4.2257490871636554  3.8360204078063203  3.6969182966276022
 -0.0385188198636466  2.4454586520047683  4.4410554314536643
  2.1842820478492602  3.8448637260053458  5.1858144514312432
 -0.0215781376126841  3.8244180544902764  6.7905742350106122
  4.2472514324817086  2.5642251295554099  5.9149974791208964
  2.1043516358041789  2.5551531442008235  7.4505337104450318
  4.2110101903522192  3.8440493860068830  8.1788935519550137
 -0.0043562161243369  5.1290146401478056 -0.0031179221857100
  2.1063793690306958  6.4070587305840609  0.7372146595425613
  0.0001955293119687  6.3938489742782325  2.2141589582325985
  4.2144511779713882  5.1240213639837409  1.4833861752213156
  2.1248472710163924  5.1322417014744266  2.9508572478516499
  4.2183153720492026  6.4051882574862118  3.7136075349845465
 -0.0271827672565467  5.1738126007530099  4.4152930019662371
  2.1210423748469478  6.3983905831287675  5.2006913998157120
 -0.0022954404109941  6.4006698821165928  6.6870744619391420
  4.2196076269561908  5.1240104958729340  5.9493929110252237
  2.1202400852309857  5.1223232165465999  7.4424424625728793
  4.2143892273006305  6.4025108652348850  8.1854756497686889
 -2.1003265269037379  1.2040839524988907  0.7639358620306946
 -4.2270043652256106 -0.0534557489839929  1.5055379848736048
 -6.3255557549934469 -0.0471457436215121  0.0076612329189538
 -6.3131664151054112  1.2495698731969107  2.2167925235746964
 -2.1168011933864608 -0.0509589276762828  2.9862068956151351
 -4.2111902428468628  1.2423300087944484  3.7188376074574974
 -2.1208756017725690  1.2274021885382509  5.2136650428849887
 -4.1954835176094036 -0.0535675533794699  5.9360556612059430
 -6.3051319082471373 -0.0312619072563310  4.4504975419843236
 -6.3157331969181323  1.2240147274762205  6.6651571983742297
 -2.1095764431566755 -0.0650926750552749  7.4326369902568672
 -4.2137652549589433  1.1731460767939801  8.1868721569110470
 -2.0942938733962504  3.8571739639294083  0.7598738511592904
 -4.2387299940366665  2.5407606498681452  1.5340988072950372
 -6.3433635685687877  2.5535264197797143  0.0180597065781625
 -6.3160520839053609  3.8454398322404755  2.2250835491473331
 -2.1228637138594126  2.5301153727741168  2.9917310608757388
 -4.2097264059529458  3.8383618843295784  3.7180444279819866
 -2.1102654981021560  3.8276411490200899  5.2093659298776780
 -4.1817969182872270  2.5417113185720228  5.9008521336202158
 -6.3091601735295875  2.5435235243902738  4.4269150343500243
 -6.3311487589428763  3.8631018832280954  6.6715999348604331
 -2.0879987092049768  2.5262909985473270  7.4115512218989279
 -4.2153274069407809  3.9114751713651694  8.1848567115518236
 -2.1225609827938370  6.3994645969299579  0.7460252261486039
 -4.2243380242758413  5.1309958054154770  1.5026967850481669
 -6.3252743274727301  5.1386647976449078  0.0098870903456867
 -6.3238388438008917  6.4114219570317452  2.2413436722058577
 -2.1256858542403725  5.1120434460669761  2.9731733402759404
 -4.2066332058993972  6.4070365213255860  3.7193062174869937
 -2.1095210208321444  6.3973809744819397  5.2011857746429522
 -4.1994073233076632  5.1323993897122895  5.9396384729626641
 -6.3050001640042446  5.1246693416083033  4.4573687370359822
 -6.3021407719265987  6.4075175375167817  6.6970442688401528
 -2.1075313578903732  5.1309992792998917  7.4304003384503874
 -4.2122628854800457  6.4076746924513639  8.1886868384061735
 63.6499231195372275  3.8208907270346462 23.0815859701403454
 91.5296421009352201  8.9990439949709309 24.4906803159329556
 38.9634519074731642 10.2861287869725420 37.2351334179638158
 70.5076545811624698  2.5477751361122309  7.4037893026232897
 72.6249110961525730  2.5395958663826121 35.7301640151996054
