Al  H 
 1.0000000000000000
    16.1521472931000005    0.0000000000000000    0.0000000000000000
     0.0000000000000000   16.1521472931000005    0.0000000000000000
     0.0000000000000000    0.0000000000000000   32.0000000000000000
 Al  H  
 256   4
Selective dynamics
Cartesian
  0.0000000000000000  0.0000000000000000  0.0000000000000000   F   F   F
  0.0000000000000000  0.0000000000000000  4.0380368229999997   F   F   F
 -0.0185936787504364  0.0244714101166713  8.1151275300838872   T   T   T
  0.0184943516312960 -0.0292828618551737 12.2097429086551603   T   T   T
  0.0000000000000000  4.0380368229999997  0.0000000000000000   F   F   F
  0.0000000000000000  4.0380368229999997  4.0380368229999997   F   F   F
  0.0793586300605217  4.1317058837434857  8.0384721498955010   T   T   T
 -0.0107052630607232  4.0362320868918653 12.1783858503060642   T   T   T
  0.0000000000000000  8.0760736469999994  0.0000000000000000   F   F   F
  0.0000000000000000  8.0760736469999994  4.0380368229999997   F   F   F
  0.0027368772788618  8.0788505898827321  8.1124574565303096   T   T   T
  0.0427567080844204  8.1219228326193580 12.1353366386671659   T   T   T
  0.0000000000000000 12.1141104700000000  0.0000000000000000   F   F   F
  0.0000000000000000 12.1141104700000000  4.0380368229999997   F   F   F
 -0.0045198909131363 12.1180062310977625  8.0967803768792876   T   T   T
  0.0040275334430614 12.1045205136851894 12.1806190736543538   T   T   T
  4.0380368229999997  0.0000000000000000  0.0000000000000000   F   F   F
  4.0380368229999997  0.0000000000000000  4.0380368229999997   F   F   F
  3.9900524913285933  0.0155584125011856  8.1055182678464597   T   T   T
  4.0509682929294408 -0.0238517515366567 12.2030420324644826   T   T   T
  4.0380368229999997  4.0380368229999997  0.0000000000000000   F   F   F
  4.0380368229999997  4.0380368229999997  4.0380368229999997   F   F   F
  4.0271163335200191  4.0613937808592242  8.1101407496719471   T   T   T
  4.0384453417088615  4.0210666511873638 12.1775279498182964   T   T   T
  4.0380368229999997  8.0760736469999994  0.0000000000000000   F   F   F
  4.0380368229999997  8.0760736469999994  4.0380368229999997   F   F   F
  4.0588763672888852  8.0979328398234180  8.1048438115591654   T   T   T
  4.0053984980810240  8.0448258949494988 12.1984283922781191   T   T   T
  4.0380368229999997 12.1141104700000000  0.0000000000000000   F   F   F
  4.0380368229999997 12.1141104700000000  4.0380368229999997   F   F   F
  4.0075465070760714 12.1234830221875001  8.0766175606622923   T   T   T
  4.0602843630986039 12.1022050967688983 12.1793515534940191   T   T   T
  8.0760736469999994  0.0000000000000000  0.0000000000000000   F   F   F
  8.0760736469999994  0.0000000000000000  4.0380368229999997   F   F   F
  8.1045220231715565 -0.0081303680059449  8.1133963402343490   T   T   T
  8.0998126727422619  0.0055883891187766 12.2000418783332325   T   T   T
  8.0760736469999994  4.0380368229999997  0.0000000000000000   F   F   F
  8.0760736469999994  4.0380368229999997  4.0380368229999997   F   F   F
  8.0773178856207082  4.0456510316694310  8.0987545280716553   T   T   T
  8.0725989914707661  4.0450220949420235 12.1804484686090539   T   T   T
  8.0760736469999994  8.0760736469999994  0.0000000000000000   F   F   F
  8.0760736469999994  8.0760736469999994  4.0380368229999997   F   F   F
  8.0981397969108038  8.0439051561159225  8.0774806873746847   T   T   T
  8.0589829805124129  8.0990346329490244 12.1790704285856464   T   T   T
  8.0760736469999994 12.1141104700000000  0.0000000000000000   F   F   F
  8.0760736469999994 12.1141104700000000  4.0380368229999997   F   F   F
  8.0692501637190777 12.0889207898562514  8.1216050227629335   T   T   T
  8.1224975658757863 12.1773739569717332 12.2369262590218959   T   T   T
 12.1141104700000000  0.0000000000000000  0.0000000000000000   F   F   F
 12.1141104700000000  0.0000000000000000  4.0380368229999997   F   F   F
 12.0791081706947239 -0.0393786229567047  8.0962938482689832   T   T   T
 12.1345468306908071  0.0179254024095927 12.1830254375761342   T   T   T
 12.1141104700000000  4.0380368229999997  0.0000000000000000   F   F   F
 12.1141104700000000  4.0380368229999997  4.0380368229999997   F   F   F
 12.1342266140306663  4.0229724160500258  8.1068082212023747   T   T   T
 12.0692395767996210  4.0376176853941441 12.1820797833007521   T   T   T
 12.1141104700000000  8.0760736469999994  0.0000000000000000   F   F   F
 12.1141104700000000  8.0760736469999994  4.0380368229999997   F   F   F
 12.1351418309942574  8.0602492342616578  8.1057159852760101   T   T   T
 12.1117352548118955  8.0936323938084893 12.2028749024238170   T   T   T
 12.1141104700000000 12.1141104700000000  0.0000000000000000   F   F   F
 12.1141104700000000 12.1141104700000000  4.0380368229999997   F   F   F
 12.1118335931564225 12.1017965109355998  8.1123125576531141   T   T   T
 12.1097519841613988 12.1347171927814070 12.1794663484885142   T   T   T
  0.0000000000000000  2.0190184119999999  2.0190184119999999   F   F   F
 -0.0154362794790879  2.0357089625109968  6.1038550280679704   T   T   T
  0.0576200906373264  1.9674998434821129 10.2219097697169374   T   T   T
  0.0094132779761329  2.0145753111939215 14.2055260940913364   T   T   T
  0.0000000000000000  6.0570552350000000  2.0190184119999999   F   F   F
  0.0138412284125205  6.0911355607800086  6.0645095295174416   T   T   T
 -0.0116380294332943  6.0516960538920177 10.1645420899773882   T   T   T
  0.0952846133994370  5.9230715098402253 14.3334225350609099   T   T   T
  0.0000000000000000 10.0950920580000005  2.0190184119999999   F   F   F
  0.0020639901680807 10.0971594509973706  6.0885327074278806   T   T   T
  0.0097377616523141 10.1156517395092056 10.1270332209649450   T   T   T
 -0.0130408897248744 10.0690309295841640 14.1954244134331713   T   T   T
  0.0000000000000000 14.1331288809999993  2.0190184119999999   F   F   F
 -0.0073653283559406 14.1409022875687214  6.0917597661635616   T   T   T
 -0.0009815578117161 14.1368277388825696 10.1512015101057873   T   T   T
  0.0117443353535017 14.1141461086475779 14.2102901087128952   T   T   T
  4.0380368229999997  2.0190184119999999  2.0190184119999999   F   F   F
  4.0365360869379820  2.0180851033996485  6.1033591123505078   T   T   T
  4.0461669149915025  2.0079472076279217 10.1440914780799858   T   T   T
  4.0737602499958196  1.9818930032940367 14.2130724378661633   T   T   T
  4.0380368229999997  6.0570552350000000  2.0190184119999999   F   F   F
  4.0473022409893442  6.0721247540201029  6.0888341704134215   T   T   T
  4.0365149133186859  6.0602299350155535 10.1638970382496687   T   T   T
  4.0149094587791669  6.0261420234040051 14.2135213439004922   T   T   T
  4.0380368229999997 10.0950920580000005  2.0190184119999999   F   F   F
  4.0448769266224289 10.0995475978758833  6.0873216805188619   T   T   T
  4.0656373808204087 10.1087681413944850 10.1538223114806812   T   T   T
  3.9918167986348361 10.0566667199876356 14.2352652139647660   T   T   T
  4.0380368229999997 14.1331288809999993  2.0190184119999999   F   F   F
  4.0352582549545319 14.1537274379387785  6.0881330498124910   T   T   T
  4.0240744315608747 14.1643517601052675 10.1316238049866740   T   T   T
  4.0491762088051155 14.1000871480716476 14.2149531049223494   T   T   T
  8.0760736469999994  2.0190184119999999  2.0190184119999999   F   F   F
  8.0616045211332992  2.0062848863502434  6.0952509464932962   T   T   T
  8.0659091010149186  2.0119504254885379 10.1398477259116095   T   T   T
  8.0929090317199552  2.0327120918575652 14.2117668184011929   T   T   T
  8.0760736469999994  6.0570552350000000  2.0190184119999999   F   F   F
  8.0806442769440245  6.0483827550306577  6.0777397773475945   T   T   T
  8.0764631056135645  6.0615351175876269 10.1511152149882324   T   T   T
  8.0636656067085433  6.0709152305305309 14.2003488115359620   T   T   T
  8.0760736469999994 10.0950920580000005  2.0190184119999999   F   F   F
  8.0842438367867491 10.0894253867137493  6.0862461177515117   T   T   T
  8.1619181722903758 10.0095233502641356 10.0589551946665932   T   T   T
  8.0548980159941319 10.1160793989355433 14.1939810477946935   T   T   T
  8.0760736469999994 14.1331288809999993  2.0190184119999999   F   F   F
  8.0642684836047618 14.1366129994114456  6.0983122695691758   T   T   T
  8.0580215858443403 14.1202836728823922 10.1544599267213691   T   T   T
  8.1017033915186936 14.1683425294974867 14.2392782489654675   T   T   T
 12.1141104700000000  2.0190184119999999  2.0190184119999999   F   F   F
 12.0811091321222364  2.0058283824834366  6.0567411852744684   T   T   T
 12.1291917320789349  2.0221806665764057 10.1354730023419730   T   T   T
 12.1333838882487584  2.0427871761811249 14.1981807462538026   T   T   T
 12.1141104700000000  6.0570552350000000  2.0190184119999999   F   F   F
 12.1233366974898047  6.0459155084198191  6.0890352046321015   T   T   T
 12.0853315184900776  6.0604990955048450 10.1383279841554277   T   T   T
 12.1087464021456626  6.0831596244260018 14.2085149930100876   T   T   T
 12.1141104700000000 10.0950920580000005  2.0190184119999999   F   F   F
 12.1280740037781865 10.0884936218988024  6.0825592472653005   T   T   T
 12.1143219222678251 10.0919130147850424 10.1570479565309508   T   T   T
 12.0369768753932043 10.1714647763720709 14.1999605299222722   T   T   T
 12.1141104700000000 14.1331288809999993  2.0190184119999999   F   F   F
 12.1070826922299855 14.1150399032509917  6.0852798229492970   T   T   T
 12.1166120476490011 14.1254553969201311 10.1579612325767066   T   T   T
 12.1398755526703130 14.1611184269502175 14.2095222233340888   T   T   T
  2.0190184119999999  0.0000000000000000  2.0190184119999999   F   F   F
  1.9944835186507679  0.0137674083220365  6.0843494267871110   T   T   T
  2.0239475103680071 -0.0186749619165353 10.1681249932573312   T   T   T
  2.0397526192708715 -0.0320050460787134 14.2237727219475261   T   T   T
  2.0190184119999999  4.0380368229999997  2.0190184119999999   F   F   F
  2.0510595710257578  4.0541894804527878  6.0617934572824348   T   T   T
  2.0012605538438781  4.0332952221977978 10.1516435034857082   T   T   T
  2.0745485925875111  3.9545233384151435 14.2043795489133107   T   T   T
  2.0190184119999999  8.0760736469999994  2.0190184119999999   F   F   F
  2.0277816538075788  8.0913867839537215  6.0881913420182920   T   T   T
  2.0396284370803923  8.0937180723306898 10.1322104186876523   T   T   T
  1.9729418975574735  8.0469398779283434 14.2045168653985776   T   T   T
  2.0190184119999999 12.1141104700000000  2.0190184119999999   F   F   F
  2.0099062419909379 12.1238945396818583  6.0783915651513079   T   T   T
  2.0273587452458917 12.1261230166659999 10.1435795828393900   T   T   T
  2.0169832344101852 12.0905564470890017 14.2020542699221028   T   T   T
  6.0570552350000000  0.0000000000000000  2.0190184119999999   F   F   F
  6.0502370885130903  0.0049995120350336  6.0429216661890219   T   T   T
  6.0613601486690447 -0.0039430375613069 10.1954185712598413   T   T   T
  6.0754036821381820 -0.0150196408169425 14.2080016394928723   T   T   T
  6.0570552350000000  4.0380368229999997  2.0190184119999999   F   F   F
  6.0548844292433870  4.0545600301301388  6.0838667623842904   T   T   T
  6.0533751478020612  4.0525165717601750 10.1592245321468351   T   T   T
  6.0588285639692536  4.0340657994427396 14.2070117350079208   T   T   T
  6.0570552350000000  8.0760736469999994  2.0190184119999999   F   F   F
  6.0620788679389559  8.0846393798022582  6.0907487985278124   T   T   T
  6.0670014101120389  8.0990002755926760 10.1603867219254731   T   T   T
  6.0294809881117502  8.0399151533601572 14.2363987655855961   T   T   T
  6.0570552350000000 12.1141104700000000  2.0190184119999999   F   F   F
  6.0585467209007069 12.1050008734172643  6.0809120331290689   T   T   T
  5.9853833526126952 12.1766140858614804 10.0806145077555840   T   T   T
  6.0646655414159376 12.0912680963609294 14.2037778945680930   T   T   T
 10.0950920580000005  0.0000000000000000  2.0190184119999999   F   F   F
 10.0914086504925411 -0.0138399747566780  6.0798222948743010   T   T   T
 10.1055080800229504 -0.0011199963982316 10.1597758831266223   T   T   T
 10.1237566746063390  0.0313944560811456 14.2157352667841081   T   T   T
 10.0950920580000005  4.0380368229999997  2.0190184119999999   F   F   F
 10.0949547920561180  4.0307031819532604  6.0916995621639778   T   T   T
 10.0881631256417350  4.0324577363673706 10.1422177605390083   T   T   T
 10.0889832620489113  4.0616358719104744 14.2029171582943263   T   T   T
 10.0950920580000005  8.0760736469999994  2.0190184119999999   F   F   F
 10.1097994908078821  8.0636859794425000  6.0817122775579815   T   T   T
 10.1277343793736918  8.0480568023975128 10.1419173322186218   T   T   T
 10.0762019889201877  8.1006539467618790 14.2030993242913528   T   T   T
 10.0950920580000005 12.1141104700000000  2.0190184119999999   F   F   F
 10.0883956763593989 12.1083357074962734  6.0896409158988511   T   T   T
 10.0722776657501907 12.1066948799948744 10.1607395560350273   T   T   T
 10.1048742716480362 12.1665343459944673 14.2250808123702264   T   T   T
 14.1331288809999993  0.0000000000000000  2.0190184119999999   F   F   F
 14.1143513562889726 -0.0335778972667778  6.0586229583827071   T   T   T
 14.1401199635163426  0.0174079011614429 10.1420387361034532   T   T   T
 14.1508477267614712  0.0136250976193027 14.2026274592059831   T   T   T
 14.1331288809999993  4.0380368229999997  2.0190184119999999   F   F   F
 14.1439923307892421  4.0282398815980160  6.1039850223453351   T   T   T
 14.0811811021411053  4.0687867505067672 10.1823369621119735   T   T   T
 14.1254527318208911  4.0637966565425785 14.1989199807346065   T   T   T
 14.1331288809999993  8.0760736469999994  2.0190184119999999   F   F   F
 14.1364490180456635  8.0688097107109531  6.0945252525247513   T   T   T
 14.1391959367143372  8.0656752793459923 10.1730185791177909   T   T   T
 14.0021547308066445  8.1997175619374474 14.3397041100333773   T   T   T
 14.1331288809999993 12.1141104700000000  2.0190184119999999   F   F   F
 14.1322060296747924 12.1083994401271635  6.0908072451637976   T   T   T
 14.1332988486478079 12.1086626055197613 10.1567489481443882   T   T   T
 14.1327495305321911 12.1149416580571252 14.2031443056765010   T   T   T
  2.0190184119999999  2.0190184119999999  0.0000000000000000   F   F   F
  2.0190184119999999  2.0190184119999999  4.0380368229999997   F   F   F
  1.9852123860749915  2.0430898244431637  8.1166085471090703   T   T   T
  2.0544907191665858  1.9868321182504793 12.2012145261860123   T   T   T
  2.0190184119999999  6.0570552350000000  0.0000000000000000   F   F   F
  2.0190184119999999  6.0570552350000000  4.0380368229999997   F   F   F
  2.0476068771637292  6.0990434583271638  8.1033889346899084   T   T   T
  1.9920678171547934  6.0380216182017623 12.1938226428704741   T   T   T
  2.0190184119999999 10.0950920580000005  0.0000000000000000   F   F   F
  2.0190184119999999 10.0950920580000005  4.0380368229999997   F   F   F
  2.0291061584467429 10.1036023480964552  8.0993728373001161   T   T   T
  2.0417719096364033 10.1072815579427502 12.1656794280121368   T   T   T
  2.0190184119999999 14.1331288809999993  0.0000000000000000   F   F   F
  2.0190184119999999 14.1331288809999993  4.0380368229999997   F   F   F
  1.9897215689260228 14.1437799899934724  8.0959558085255932   T   T   T
  2.0331535596232873 14.1111292471674172 12.1891334431972371   T   T   T
  6.0570552350000000  2.0190184119999999  0.0000000000000000   F   F   F
  6.0570552350000000  2.0190184119999999  4.0380368229999997   F   F   F
  6.0516787664596094  2.0596223224832064  8.1117192567517602   T   T   T
  6.0719411269786177  2.0183875803198297 12.1950819558695560   T   T   T
  6.0570552350000000  6.0570552350000000  0.0000000000000000   F   F   F
  6.0570552350000000  6.0570552350000000  4.0380368229999997   F   F   F
  6.0576105715835435  6.0710669811466609  8.1126193901447312   T   T   T
  6.0446441061243963  6.0590553573866108 12.1901032738847430   T   T   T
  6.0570552350000000 10.0950920580000005  0.0000000000000000   F   F   F
  6.0570552350000000 10.0950920580000005  4.0380368229999997   F   F   F
  6.0753114467803071 10.1068527717100789  8.1214615510616852   T   T   T
  5.9935052057093907 10.0347272274369317 12.2471304542012440   T   T   T
  6.0570552350000000 14.1331288809999993  0.0000000000000000   F   F   F
  6.0570552350000000 14.1331288809999993  4.0380368229999997   F   F   F
  6.0452467334716022 14.1312825350791851  8.0824928179292552   T   T   T
  6.0692578933113577 14.1029313694038940 12.1937713945872090   T   T   T
 10.0950920580000005  2.0190184119999999  0.0000000000000000   F   F   F
 10.0950920580000005  2.0190184119999999  4.0380368229999997   F   F   F
 10.1035828474436293  2.0159799560560443  8.0976195262406829   T   T   T
 10.0996245665327624  2.0290906425282884 12.1771410734138552   T   T   T
 10.0950920580000005  6.0570552350000000  0.0000000000000000   F   F   F
 10.0950920580000005  6.0570552350000000  4.0380368229999997   F   F   F
 10.1094453695218434  6.0419168274046502  8.0967359434156982   T   T   T
 10.0799037036467105  6.0719645158990447 12.1863765353847917   T   T   T
 10.0950920580000005 10.0950920580000005  0.0000000000000000   F   F   F
 10.0950920580000005 10.0950920580000005  4.0380368229999997   F   F   F
 10.1331309658371591 10.0731993884978888  8.0804891672918568   T   T   T
 10.0639902879761500 10.1165225463768866 12.1722630567358188   T   T   T
 10.0950920580000005 14.1331288809999993  0.0000000000000000   F   F   F
 10.0950920580000005 14.1331288809999993  4.0380368229999997   F   F   F
 10.0930809664285430 14.1053212000128685  8.1094292458213761   T   T   T
 10.1176626711455544 14.1675399754696212 12.1941961690920451   T   T   T
 14.1331288809999993  2.0190184119999999  0.0000000000000000   F   F   F
 14.1331288809999993  2.0190184119999999  4.0380368229999997   F   F   F
 14.0442043111379160  1.9353733396939783  8.0276182959508553   T   T   T
 14.1471735173400450  2.0330813170719528 12.1637071160158374   T   T   T
 14.1331288809999993  6.0570552350000000  0.0000000000000000   F   F   F
 14.1331288809999993  6.0570552350000000  4.0380368229999997   F   F   F
 14.1480231674367989  6.0382861841263269  8.1214343512161093   T   T   T
 14.0723223858160296  6.0377826564855726 12.1742215022581526   T   T   T
 14.1331288809999993 10.0950920580000005  0.0000000000000000   F   F   F
 14.1331288809999993 10.0950920580000005  4.0380368229999997   F   F   F
 14.1363224146060702 10.0868736310318692  8.1079539416300648   T   T   T
 14.1241301578529033 10.0896663749820714 12.1940173307047193   T   T   T
 14.1331288809999993 14.1331288809999993  0.0000000000000000   F   F   F
 14.1331288809999993 14.1331288809999993  4.0380368229999997   F   F   F
 14.1271454303357142 14.1274253617085659  8.1041275290391717   T   T   T
 14.1423123262235055 14.1403178002172805 12.1813896509668051   T   T   T
 15.1548200318549302  3.0080044396595018  9.0705609779052292   T   T   T
 15.1381953355198764  7.0809951017979254 13.2962478164048754   T   T   T
  7.0706299729073923 11.0807308976433365 11.0767550463879143   T   T   T
  6.0495957804151148  0.0202711442290731  8.0283531374223145   T   T   T
