Cu  H 
 1.0000000000000000
    14.5804395675999992    0.0000000000000000    0.0000000000000000
     0.0000000000000000   14.5804395675999992    0.0000000000000000
     0.0000000000000000    0.0000000000000000   14.5804395675999992
 Cu  H  
 256   4
Cartesian
  0.0001432094454106  0.0009534241058575  0.0006303512897957
  0.0033389754879891  1.8161695644509197  1.8189219467840201
  1.8230428501469660  0.0002073002618916  1.8230813875266283
  1.8228961766235927  1.8206824450212544 -0.0027555352796606
 -0.0000024801799314 -0.0001683893192226  3.6454443348614074
 -0.0000235720275843  1.8196391889776937  5.4722749914370850
  1.8224995294659088  0.0000491643793861  5.4676442751919048
  1.8274211599115582  1.8199951233467269  3.6450157621698787
  0.0000969772755978  0.0009972464428323  7.2886526687828725
  0.0007838846776961  1.8232893762379827  9.1119190578007174
  1.8229479959138004 -0.0004736354741933  9.1137308291655188
  1.8231165648611085  1.8193757686764778  7.2922106782501341
 -0.0001158736187064 -0.0011475368342635 10.9348967540325042
  0.0019710271158664  1.8228201977962133 12.7571407463048327
  1.8235428562692393 -0.0016098291741979 12.7569609458923736
  1.8230708524813557  1.8233799674880671 10.9352124940882387
 -0.0004036205038591  3.6379794366772917 -0.0023436522106322
  0.0000046887502576  5.4671047655761562  1.7750198165183544
  1.8323781159533092  3.6341690611686963  1.8108606724916561
  1.8270101882726406  5.4546147515582195  0.0102702363857582
  0.0035053779913144  3.5937680410612383  3.6485904607198112
 -0.0000309481660232  5.4680799435618637  5.5169043524300623
  1.8344423022240401  3.6334006248712813  5.4788378184061264
  1.8733784092205357  5.4678471132806594  3.6446215494336398
  0.0002892403653148  3.6403179570531199  7.2931828992272285
  0.0015601577311457  5.4634078518788352  9.1103136716392008
  1.8224900980829319  3.6414449147708461  9.1095098670555288
  1.8266792512970769  5.4641386373607466  7.2890500491479102
 -0.0044164440827175  3.6414994662010343 10.9349219425897974
 -0.0062504079373212  5.4529964019620394 12.7537734099817239
  1.8214687116109753  3.6442866263418829 12.7593258912687997
  1.8155843304438528  5.4494481834287019 10.9274816356847744
 -0.0064659162813045  7.2982545521531472  0.0121955920656541
 -0.0043682129138062  9.1158440045956795  1.8213627423450824
  1.8328241486186942  7.3000984539978528  1.8122748418072161
  1.8159713495889840  9.1232496055563725  0.0155151851318707
  0.0023534957428245  7.3414135136625998  3.6460571641971367
 -0.0000640897480919  9.1157858348870224  5.4735269208551216
  1.8349347534101956  7.3019309846170950  5.4798590173577786
  1.8275481723125713  9.1153918771644236  3.6441349326592154
 -0.0002978240356098  7.2937827149229060  7.2870859204362475
 -0.0098655878240298  9.1111089224981630  9.0956467114132487
  1.8153373987071209  7.2828132905272165  9.0937031082781932
  1.8216125651357660  9.1165787529296711  7.2932800406673701
 -0.0169369030155314  7.2784678078451019 10.9277453080690030
 -0.0169015087947575  9.1194431519902270 12.7703112478671414
  1.7699420301405622  7.2370330189793739 12.8109609637400510
  1.7702405514362378  9.1671828213524300 10.8813698499236757
  0.0013483288974880 10.9378089727841079  0.0052166513581686
  0.0002940727938357 12.7574401863678251  1.8223501007137497
  1.8224504099031087 10.9385475213376093  1.8263064528068575
  1.8222905206773408 12.7612803268943811  0.0031669720809024
  0.0007749961002477 10.9359308799276089  3.6454686018413907
  0.0000938434828260 12.7584036626835982  5.4674860266502989
  1.8230310441310240 10.9347616049714027  5.4676187956155209
  1.8229144919819480 12.7584536790475322  3.6457639688377990
  0.0015092204066603 10.9367349311238566  7.2852370885659212
  0.0015088576475948 12.7618188706233564  9.1108105659312582
  1.8232302853974827 10.9483379239505130  9.1006486661744699
  1.8222651367417466 12.7579643002717980  7.2904783592227238
 -0.0098978365983255 10.9519143033681843 10.9360405295357914
 -0.0003714792066288 12.7633007791848705 12.7591022127867557
  1.8152323278297491 10.9549286494457441 12.7648689463045741
  1.8210108525510951 12.7573512447159061 10.9340379192951183
  3.6446370364969551 -0.0009898312846465 -0.0004291480051300
  3.6479648354526391  1.8199067227142056  1.8223442801090932
  5.4681698933337799  0.0000826847547774  1.8236372125633455
  5.4646067995191965  1.8187905660878065 -0.0005092873178882
  3.6436815168698202  0.0000037001179795  3.6451417872909522
  3.6472480817581836  1.8199867343977969  5.4687018386380402
  5.4676817322421858 -0.0008991304312990  5.4679844354993259
  5.4660570087714540  1.8224664711879732  3.6461836252057460
  3.6452107615652252  0.0002565160230871  7.2898485278379379
  3.6451396520863564  1.8226905894759595  9.1132892956923683
  5.4671931586875635  0.0005969140469763  9.1129852293440443
  5.4674970677213741  1.8219499776469821  7.2902317343351921
  3.6449139468118190 -0.0014033067398882 10.9355880554081732
  3.6447092306876061  1.8236813973414252 12.7575358817804609
  5.4669160362757001  0.0000827982103250 12.7573903355204692
  5.4674712631944926  1.8225852688017008 10.9354719061310792
  3.6492025735459750  3.6414742194858754  0.0012119754352407
  3.6492936967907177  5.4638841266191722  1.8208589336491945
  5.4675309100411269  3.6439629726894878  1.8237724398131188
  5.4681582466198977  5.4670234672090858  0.0015706434969175
  3.6481624151896108  3.6400724096960824  3.6452304736018402
  3.6471853463003985  5.4680072946592952  5.4731719514302766
  5.4676489117601195  3.6442158097547153  5.4670831238831878
  5.4642980119147104  5.4680873289266643  3.6488251413527246
  3.6481251877544709  3.6445673232114619  7.2926605833562288
  3.6433996774472788  5.4548874102739751  9.0997360536417773
  5.4683405246147121  3.6435244585223181  9.1117169139767249
  5.4676799547002535  5.4664546380502266  7.2883235234037951
  3.6460887868369500  3.6448234126755898 10.9337686784736761
  3.6517017745645868  5.4482884471058783 12.7660854306551510
  5.4677704860828351  3.6410409800036918 12.7543710672945227
  5.4806262257783622  5.4564966742424366 10.9360649635591933
  3.6552636724862047  7.2830723850024119  0.0167011306142963
  3.6482067193938525  9.1167907631990612  1.8221481155040895
  5.4673370657014679  7.2932832325177825  1.8267735404638878
  5.4809594111337452  9.1121848532643082  0.0110109744484824
  3.6472947826343036  7.2951193013379818  3.6439930448809665
  3.6472955290165165  9.1150264853927148  5.4695764807642391
  5.4667973334962028  7.2906272238359904  5.4675105044833554
  5.4670534815002689  9.1116225067048635  3.6449858036569980
  3.6487720205877263  7.2897607515273277  7.2920502806371417
  3.6526320057416553  9.1203946108473648  9.0935436100353062
  5.4801006993075578  7.2908566999874589  9.1001831451059552
  5.4716369318586358  9.1133813939254757  7.2881223749054520
  3.6989619884405287  7.2361894118545713 10.8812812980348106
  3.6986369525546778  9.1669566577816113 12.8116479768836538
  5.4854401487929048  7.2839218361632341 12.7636788130025298
  5.4853911966990747  9.1208487256349606 10.9273767337605374
  3.6445712264451933 10.9480903090541801  0.0126262167377083
  3.6459420186081219 12.7579813726324023  1.8225445486435667
  5.4683381904353414 10.9372595720439971  1.8244067830492621
  5.4681052596434911 12.7587714263013954  0.0010629222876973
  3.6439465619356897 10.9345257695384142  3.6448719942863463
  3.6454218457261240 12.7583892987853851  5.4672095731164871
  5.4675966584415177 10.9356107310060722  5.4668877029936311
  5.4671452608111508 12.7580146783950177  3.6455964849163403
  3.6456533353142739 10.9389071116355669  7.2868738723872806
  3.6456549559576534 12.7613448844532780  9.1093899170188486
  5.4692849630798461 10.9370753069085715  9.1111392609180637
  5.4676540234361566 12.7579183673548524  7.2903089091416309
  3.6525771836340484 10.9547651826955175 10.9278777117368513
  3.6463881274360284 12.7585445500615116 12.7589341837736665
  5.4797111976710644 10.9483834626469321 12.7570771967830545
  5.4714525423207583 12.7600949572262028 10.9348503380218691
  7.2871331082786108 -0.0025798713021942 -0.0003342371030892
  7.2776994656737077  1.8097178535216825  1.8219067486857823
  9.1113169110918797 -0.0003994222978653  1.8243872023479679
  9.1051383985158285  1.8035243345874974 -0.0071271668105776
  7.2891007968510673 -0.0010303263569612  3.6462099138495567
  7.2890892182590257  1.8211339502414188  5.4688907569486371
  9.1120118430847938  0.0000156529431168  5.4670596858815372
  9.1138436179789934  1.8108920968765176  3.6577622851841629
  7.2900679757067293 -0.0002320322670218  7.2905841557672115
  7.2903634534339936  1.8220933295638093  9.1124685424792577
  9.1128273480173636 -0.0005074949299768  9.1122064711427342
  9.1127123059326465  1.8228015568217244  7.2895871507712977
  7.2914180583781745  0.0001000167537924 10.9353832205827466
  7.2886557980859985  1.8203155566540492 12.7562200968111963
  9.1123254312788671 -0.0032413531085171 12.7545236067279504
  9.1119481070889936  1.8190708726465437 10.9320934600779243
  7.2710526548454899  3.6374557227425899 -0.0071819288438668
  7.2705318724628984  5.4746606190309368  1.8298960683570578
  9.0585044461656334  3.5907947625453280  1.8766089692243551
  9.0586284420700629  5.5176363071101413 -0.0489405699416251
  7.2775345344969811  3.6453712611121745  3.6577162057356913
  7.2871862952073769  5.4678802712286849  5.4705979632073376
  9.1118094008397073  3.6434383455176858  5.4676894051530658
  9.1045818854322871  5.4748638875346938  3.6643373880650825
  7.2910240569171645  3.6445034705720234  7.2895022448501763
  7.2894136393628708  5.4638531144830464  9.1111490388128438
  9.1130922394539713  3.6451633124889944  9.1143147438361574
  9.1133051814359227  5.4647774516954746  7.2851616935692904
  7.2878664334510805  3.6450632999510919 10.9315654526360593
  7.2788788897282419  5.4608742949523172 12.7469034071392144
  9.1053576886684020  3.6371327701432055 12.7384670381988823
  9.1072578391914298  5.4665584424169618 10.9349317579210279
  7.2787277768324650  7.3015522225799723  0.0065156687028375
  7.2879292062918521  9.1168323892959666  1.8225531819662177
  9.1056483656525948  7.3094722459685233  1.8306796435124322
  9.1068471894327629  9.1133391135239350  0.0009556043743013
  7.2887240362387242  7.2922190967266305  3.6472174228713770
  7.2914477733113685  9.1130557372750935  5.4675667415021518
  9.1123079933918625  7.2935375995581611  5.4709120475183415
  9.1122922865879534  9.1150874094857475  3.6485286088427253
  7.2877680509167364  7.2890966665754116  7.2883253521389006
  7.2910147123524593  9.1138229536438988  9.1044969737815364
  9.1007481995050323  7.2784050829867821  9.1025531953106142
  9.1084643687475015  9.1133605216443172  7.2879023271417607
  7.2866110464426921  7.2859673549880100 10.9326202921763151
  7.2866314749338130  9.1155777997259442 12.7622049624977727
  9.1003699697492983  7.2918775440191794 12.7556701122544141
  9.0623703924835333  9.1124488531136887 10.9357653867316920
  7.2894466148947679 10.9368098836881096  0.0036814875264224
  7.2909767281109108 12.7588878645999699  1.8230927154142802
  9.1130860890954803 10.9346231815839872  1.8227419566202596
  9.1129570095375865 12.7619853344356482  0.0027837393430273
  7.2904117718340036 10.9354535898730649  3.6454523307641393
  7.2900454694922665 12.7576463310057999  5.4679633466375703
  9.1124155096585522 10.9363587758894347  5.4680170914777726
  9.1130850500394800 12.7586761426180075  3.6447237283362166
  7.2875325672517794 10.9362488416497428  7.2878766112534770
  7.2875507777007442 12.7603497339329142  9.1118708470979008
  9.1016572600512031 10.9465497180986215  9.1016257592058949
  9.1121999520962884 12.7604733741100542  7.2877434774838319
  7.2910220013923119 10.9436091835041100 10.9344164522340996
  7.2877108687867675 12.7600770842840152 12.7590074507381974
  9.1011519403876289 10.9459799488833180 12.7695488538747082
  9.1086368574900067 12.7603275979057216 10.9348822438128224
 10.9363869679265253 -0.0009695359796236 -0.0022370075720156
 10.9401765094864718  1.8008494820499601  1.8290333716579457
 12.7611270533804166 -0.0027766808427928  1.8235456699889039
 12.7692971812189189  1.8070686986805586 -0.0015064576950049
 10.9368092560560441 -0.0029764128275420  3.6484927928240749
 10.9332403431864638  1.8165768197036369  5.4717829320779758
 12.7580405410367845  0.0005399387303318  5.4671462647154794
 12.7548210197118443  1.8183905479257034  3.6466820671655071
 10.9351623828760101 -0.0010566169842102  7.2918406944237919
 10.9351083607788855  1.8227920871192258  9.1128396802591283
 12.7576175368412201 -0.0005146719610849  9.1127533620491299
 12.7572241071461292  1.8200333068147603  7.2926648066110671
 10.9357256824870657  0.0002105318016212 10.9353509266410711
 10.9345268069144801  1.8096553626843153 12.7453554892659486
 12.7585963742045170 -0.0011534991068887 12.7563874057155058
 12.7589159348381482  1.8206052032269411 10.9341286390851149
 10.9858438762515682  3.5902315852266344 -0.0580448017549218
 10.9861467856293462  5.5222632862649688  1.8698189094894719
 12.7650589870839450  3.6254388642526996  1.8195270167266655
 12.7721514596361398  5.4712355480048052 -0.0066377662094152
 10.9403566788006739  3.6333249606031819  3.6642789019832636
 10.9336244712724451  5.4696531322359068  5.4732999617803797
 12.7496383635791375  3.6324279126635890  5.4822405598548123
 12.7223173359804580  5.4654729492223018  3.6596545526433877
 10.9324956398062287  3.6451584274629631  7.2927205903001528
 10.9358573834942110  5.4648346078596362  9.1089917634273796
 12.7575146232454024  3.6452720188241297  9.1128087255603525
 12.7534979891328017  5.4645531874584403  7.2898444127180344
 10.9355683945353643  3.6432860583029876 10.9347349170852688
 10.9442922629435682  5.4726762600158150 12.7433910619301329
 12.7705806187372026  3.6456339546917715 12.7457333930390693
 12.7619075343502448  5.4620613016516399 10.9314603185291848
 10.9406298525031023  7.3059347590893173 -0.0077885671902339
 10.9332899444068925  9.1161303088111012  1.8236735803573532
 12.7592459905553870  7.3134860951965663  1.8101610647165838
 12.7615932968037367  9.1193851131117665  0.0029162877952509
 10.9323524824841964  7.3062470160916400  3.6573450646304981
 10.9332066055309944  9.1154780355242675  5.4681326054946640
 12.7471412220903613  7.3028630839831621  5.4800161506979892
 12.7545241997387215  9.1168997563820504  3.6468120111800753
 10.9320419996903109  7.2859203797680463  7.2896163785094306
 10.9356018987827905  9.1133642062186144  9.0628451706361250
 12.7659256658142244  7.2783742761618271  9.0978515676975853
 12.7619926955588774  9.1164047612495462  7.2908208673731014
 10.9367337482574793  7.2445831665990257 10.9314223024186852
 10.9369188584691113  9.1168752509266540 12.8033075940651990
 12.7698260825487182  7.2795023986545475 12.7685676115391153
 12.8069499036425896  9.1143225521205071 10.9341206688399932
 10.9347218440084362 10.9389014031542740  0.0026400062949618
 10.9347079268799288 12.7580275419824396  1.8218150979057490
 12.7575653028651566 10.9352401694611050  1.8224559718472226
 12.7580806623820990 12.7607433894182201  0.0026017255742350
 10.9362882599350382 10.9350235669684626  3.6447462960108883
 10.9349783575450736 12.7564038371490280  5.4685270832180635
 12.7575764175790134 10.9357246219598334  5.4676322818417695
 12.7574411598664401 12.7579684471142176  3.6450750058266195
 10.9348342314443858 10.9401778711612305  7.2873632097508114
 10.9348606671468076 12.7608569389307718  9.1081137734996620
 12.7681991780705975 10.9483790855463230  9.1006073038716373
 12.7580513649211280 12.7609332157771131  7.2874935347690606
 10.9356540619962956 10.9854494831377103 10.9349489866711096
 10.9345948566796185 12.7612512466301737 12.7629092054152036
 12.7660992629449872 10.9507545074448682 12.7693652887141358
 12.7625653455538117 12.7598805658091745 10.9343397411091630
 -0.0069833714142997  5.4687095850135874  3.6454962053266042
  2.7338019813818901  8.2013196190095279 11.8460586765916513
 10.0266863741057808  4.5566448479432262  0.9149724099155950
 10.9341493051565006  9.1128516474196939 10.9350312951543369
