Cr Co Ni  H 
 1.0000000000000000
    14.1120004653999995    0.0000000000000000    0.0000000000000000
     0.0000000000000000   14.1120004653999995    0.0000000000000000
     0.0000000000000000    0.0000000000000000   32.0000000000000000
 Cr  Co  Ni  H  
  85  85  86   4
Selective dynamics
Cartesian
  1.7640000579999999  1.7640000579999999  3.5280001159999999   F   F   F
 10.5840003490000001  1.7640000579999999  1.7640000579999999   F   F   F
  7.6548621636379401  1.6211092619069600 14.0144840411730325   T   T   T
  0.0000000000000000  3.5280001159999999  0.0000000000000000   F   F   F
 10.7979392071736413  1.9982635079353719 14.2295802819053083   T   T   T
 10.5840003490000001  8.8200002909999995  5.2920001750000001   F   F   F
  0.0000000000000000  3.5280001159999999  3.5280001159999999   F   F   F
 12.1219780495457545  3.6757494479316897  9.5748739374933844   T   T   T
  1.7640000579999999  0.0000000000000000  1.7640000579999999   F   F   F
  7.2070305222251552  6.9558542492709696  7.5192719864368378   T   T   T
 11.6168866788315555  9.1608789223271927 12.2169525287139891   T   T   T
 -0.4794954604982009  8.8885555561574190 10.0978140424163101   T   T   T
  8.8200002909999995  5.2920001750000001  3.5280001159999999   F   F   F
 12.3550876409911812 12.6104100191182429  7.3318682617840869   T   T   T
  7.0560002329999998  5.2920001750000001  5.2920001750000001   F   F   F
  0.0000000000000000  1.7640000579999999  1.7640000579999999   F   F   F
 12.3480004070000007  1.7640000579999999  3.5280001159999999   F   F   F
  6.6138488087971572  5.0546254154557619 13.8294717200971444   T   T   T
 12.3946016336668112  5.8183711438441756  7.8334942284418494   T   T   T
  3.9671259146392992 11.0022727570409220 11.6978462315839185   T   T   T
  3.5280001159999999  8.8200002909999995  1.7640000579999999   F   F   F
  5.9290084147456170 12.6777891861280327  7.5203398020085546   T   T   T
  1.7640000579999999  8.8200002909999995  3.5280001159999999   F   F   F
  3.5280001159999999  5.2920001750000001  5.2920001750000001   F   F   F
  3.5569782090382196 -0.1500018748802395  7.4020792998372356   T   T   T
 11.9838285608888349  7.5622187020473550 14.6443539944855168   T   T   T
  5.2920001750000001  5.2920001750000001  0.0000000000000000   F   F   F
  7.0560002329999998 10.5840003490000001  3.5280001159999999   F   F   F
  8.9804086537810264  6.7364746916732257 13.8714073469524415   T   T   T
  5.2348129350415906  7.4896760724811520 14.2432491967621484   T   T   T
  7.0560002329999998  8.8200002909999995  1.7640000579999999   F   F   F
  3.8923176911611286  7.1230651983519113 11.7455019662948388   T   T   T
  3.3477473667984468  7.1395845352877165  7.6040221555893783   T   T   T
 10.4741680290667780 10.6514618089288646  7.4148600645716520   T   T   T
  8.8200002909999995  0.0000000000000000  1.7640000579999999   F   F   F
  8.6544308619148520 13.1246927719750079 12.0654519165553289   T   T   T
  3.2513918527619290 -0.0951914697364333 11.8492508110814185   T   T   T
  3.5280001159999999  8.8200002909999995  5.2920001750000001   F   F   F
  1.3547053491594070  5.9576979549525015 11.8650750790875055   T   T   T
  7.0560002329999998  1.7640000579999999  5.2920001750000001   F   F   F
  3.3793940021818552  5.1042050975579238 14.1387920971935035   T   T   T
  8.8200002909999995  3.5280001159999999  5.2920001750000001   F   F   F
 10.4604860990259318  8.5264425868177636  9.5014128575863452   T   T   T
  0.0061545727842959 -0.5037608310425454 12.0852378777112470   T   T   T
 12.7030187456547399 -0.1702193385450864  9.6211845144913504   T   T   T
  7.4427571530802803 10.7085164024589563 11.5134357431998993   T   T   T
  1.9862467328089097 10.4477971080558465  9.5233673969485650   T   T   T
  9.0484745929632311  3.4934576641349633  9.5482113899261147   T   T   T
  3.5280001159999999 12.3480004070000007  1.7640000579999999   F   F   F
  3.5280001159999999  1.7640000579999999  1.7640000579999999   F   F   F
 -0.2635853256110265 10.3438362081162492  7.6378029685931343   T   T   T
 10.5840003490000001  7.0560002329999998  3.5280001159999999   F   F   F
 10.9929702487942524  4.1932023105194585 11.9595786180642669   T   T   T
 12.5903952736203593  1.8639072492314819 11.7993384854057179   T   T   T
  0.0000000000000000  5.2920001750000001  1.7640000579999999   F   F   F
  7.0560002329999998  8.8200002909999995  5.2920001750000001   F   F   F
  7.0560002329999998  3.5280001159999999  3.5280001159999999   F   F   F
  5.2920001750000001  7.0560002329999998  5.2920001750000001   F   F   F
  2.8655551000491299  1.8717237168978309 14.1379179189287054   T   T   T
  5.2920001750000001  8.8200002909999995  3.5280001159999999   F   F   F
  3.5280001159999999  0.0000000000000000  0.0000000000000000   F   F   F
  0.4114097793079310  7.4023432896251489  7.6823834473973349   T   T   T
 10.5840003490000001  3.5280001159999999  0.0000000000000000   F   F   F
 12.3480004070000007  7.0560002329999998  5.2920001750000001   F   F   F
 12.3480004070000007  8.8200002909999995  3.5280001159999999   F   F   F
  1.7640000579999999  7.0560002329999998  1.7640000579999999   F   F   F
  5.2920001750000001  1.7640000579999999  3.5280001159999999   F   F   F
  0.0000000000000000  7.0560002329999998  3.5280001159999999   F   F   F
 10.5840003490000001  1.7640000579999999  5.2920001750000001   F   F   F
  1.7640000579999999  5.2920001750000001  3.5280001159999999   F   F   F
  0.0000000000000000  0.0000000000000000  3.5280001159999999   F   F   F
  3.8093397143952399 10.9548883400387300  7.5798154180505186   T   T   T
  3.2933042989161345  5.3488803571754726  9.6333377078784252   T   T   T
  0.0000000000000000  1.7640000579999999  5.2920001750000001   F   F   F
 -0.2535191136542322  3.5505065998262224  7.4763431769412936   T   T   T
  1.8582677366540132  1.8951908616873470  7.4733543130935720   T   T   T
 10.0968105728931192 12.6856668369545247  9.4552519691334513   T   T   T
  7.0560002329999998 10.5840003490000001  0.0000000000000000   F   F   F
  5.2920001750000001 10.5840003490000001  5.2920001750000001   F   F   F
  0.0000000000000000  5.2920001750000001  5.2920001750000001   F   F   F
  0.0000000000000000  8.8200002909999995  5.2920001750000001   F   F   F
  3.5280001159999999  3.5280001159999999  3.5280001159999999   F   F   F
  1.7640000579999999  3.5280001159999999  1.7640000579999999   F   F   F
 12.3480004070000007 10.5840003490000001  5.2920001750000001   F   F   F
  3.5280001159999999  7.0560002329999998  3.5280001159999999   F   F   F
  8.8200002909999995  8.8200002909999995  0.0000000000000000   F   F   F
 12.0638369288728420 12.0680476555706928 11.5742974088260873   T   T   T
  3.5280001159999999 10.5840003490000001  0.0000000000000000   F   F   F
 10.5840003490000001 10.5840003490000001  3.5280001159999999   F   F   F
  7.3475812782735765  8.8954835149368634 13.5009529519717759   T   T   T
  1.7654907411529168  5.0614233779035853  7.2115283893157995   T   T   T
  8.8200002909999995  0.0000000000000000  5.2920001750000001   F   F   F
  8.8200002909999995 10.5840003490000001  5.2920001750000001   F   F   F
  1.9938202235473081  7.7723340128832845  9.8562739903795382   T   T   T
  5.2920001750000001  8.8200002909999995  0.0000000000000000   F   F   F
  0.0000000000000000  7.0560002329999998  0.0000000000000000   F   F   F
 -0.1521024413667963 11.7653299783135967  9.9165760126433344   T   T   T
 10.5840003490000001  5.2920001750000001  5.2920001750000001   F   F   F
  1.7640000579999999  0.0000000000000000  5.2920001750000001   F   F   F
 10.5840003490000001  0.0000000000000000  3.5280001159999999   F   F   F
  2.0046304218791184  9.1030621367320865 12.0032127802345041   T   T   T
  3.5280001159999999  5.2920001750000001  1.7640000579999999   F   F   F
  5.2920001750000001 12.3480004070000007  3.5280001159999999   F   F   F
  8.9526550670701415  3.8791613675171126 13.4722598146737056   T   T   T
  3.5280001159999999  7.0560002329999998  0.0000000000000000   F   F   F
 10.8421705828823374  0.1204137051166513 11.4718935217295712   T   T   T
  5.2920001750000001  3.5280001159999999  5.2920001750000001   F   F   F
  1.7640000579999999  3.5280001159999999  5.2920001750000001   F   F   F
  6.9285785718402746  0.8452359501452513 11.4692603838107843   T   T   T
  8.8200002909999995  7.0560002329999998  5.2920001750000001   F   F   F
  8.8200002909999995  5.2920001750000001  0.0000000000000000   F   F   F
  8.8200002909999995  3.5280001159999999  1.7640000579999999   F   F   F
 10.2240091270697757  6.8865643962538607  7.2035342061462879   T   T   T
  9.8012158297194052  9.3359129009527955 14.0565694394732414   T   T   T
  1.7640000579999999  1.7640000579999999  0.0000000000000000   F   F   F
  5.2731767388205801  5.2804810532463584  7.4059799121674743   T   T   T
  7.0560002329999998  0.0000000000000000  3.5280001159999999   F   F   F
  8.6356824293836478  0.7024974581324648  9.7904596510920729   T   T   T
 12.3480004070000007 10.5840003490000001  1.7640000579999999   F   F   F
  1.7640000579999999 12.3480004070000007  3.5280001159999999   F   F   F
 12.3480004070000007 12.3480004070000007  3.5280001159999999   F   F   F
  2.2479633568731829  7.6146601269693566 14.0252238187652889   T   T   T
 -0.0063613026320098  1.3546907948419604 13.9176696660317312   T   T   T
 10.8972964161096542  3.7206617293653972  7.2500141983406809   T   T   T
  8.8200002909999995  1.7640000579999999  3.5280001159999999   F   F   F
  5.2920001750000001  1.7640000579999999  0.0000000000000000   F   F   F
  5.3030849934527078  4.8559609582525942 11.3989633931915577   T   T   T
  4.8801311994840573  2.0363237987599407 11.1597905051490613   T   T   T
 10.5840003490000001  7.0560002329999998  0.0000000000000000   F   F   F
  5.2883581576503778  8.7545363239589999  7.4704094982474167   T   T   T
 10.7677998396854964  1.4998603585815564  9.3569034211502569   T   T   T
 10.5840003490000001  3.5280001159999999  3.5280001159999999   F   F   F
  3.5280001159999999  3.5280001159999999  0.0000000000000000   F   F   F
  8.8200002909999995  1.7640000579999999  0.0000000000000000   F   F   F
 10.9863972790425688  4.9811741931824489 14.4635551390933514   T   T   T
  6.9256094115695044  3.5259703802693023  7.3052704626102498   T   T   T
  7.0560002329999998  5.2920001750000001  1.7640000579999999   F   F   F
  5.5885674027353520 11.0007376484481156  9.5912996992718487   T   T   T
 -0.0397782926207910  3.8933097932963570 11.2220822181317992   T   T   T
  8.5102593618317872  5.2862835930523042 11.4543851185734695   T   T   T
  7.0560002329999998  0.0000000000000000  0.0000000000000000   F   F   F
  3.5280001159999999  0.0000000000000000  3.5280001159999999   F   F   F
  6.7701728741627818  6.9429417741780624 11.7068552141438165   T   T   T
 11.9491268335229286 -0.3696961817979209 13.6873090664351125   T   T   T
  1.3073883112546716  1.7870348730732528 11.5061867049457511   T   T   T
 12.2191854342441193  1.5779035557286529  7.3832358963286300   T   T   T
  8.8200002909999995 12.3480004070000007  0.0000000000000000   F   F   F
  0.0000000000000000 12.3480004070000007  5.2920001750000001   F   F   F
 10.3618028196401273  5.7602289254123722  9.5269979832239606   T   T   T
  1.7640000579999999  5.2920001750000001  0.0000000000000000   F   F   F
  1.7640000579999999  7.0560002329999998  5.2920001750000001   F   F   F
  5.2920001750000001  0.0000000000000000  1.7640000579999999   F   F   F
 10.5840003490000001  0.0000000000000000  0.0000000000000000   F   F   F
 -0.0314479204866752  7.9020619639755871 12.9255604049621180   T   T   T
  6.8439423225345921  4.9494388875998077  9.4587095113941686   T   T   T
  1.7640000579999999 10.5840003490000001  5.2920001750000001   F   F   F
  5.5820070758927240  9.0040685367009576 11.6960634701611355   T   T   T
  1.7640000579999999  8.8200002909999995  0.0000000000000000   F   F   F
  8.8200002909999995  8.8200002909999995  3.5280001159999999   F   F   F
 12.3480004070000007  5.2920001750000001  0.0000000000000000   F   F   F
  4.1353722574930236  8.9834195952029727  9.6420698802408431   T   T   T
  1.4968263578866845 12.2780257994622026  7.3169020186520006   T   T   T
  8.8200002909999995  7.0560002329999998  1.7640000579999999   F   F   F
  0.5761764238061760  9.5002690153277847 14.5630635077541459   T   T   T
  7.5605577601552953  0.4605404715424534  7.6229016114518551   T   T   T
 10.5805869331959883 11.6426871511518151 13.4256650326222875   T   T   T
  9.3263740368313339  2.0289666490524141 11.7694886571209434   T   T   T
  6.8001157078678824  8.9065652170574356  9.4892068921420307   T   T   T
  1.7640000579999999 12.3480004070000007  0.0000000000000000   F   F   F
  5.7714651653743365 12.8738662344581307 11.5692382340197799   T   T   T
 11.8873611265034871 10.7516869863397346  9.4772050873551805   T   T   T
  0.5926104981103847  5.7950898586103330 14.4473130259838403   T   T   T
  1.8681204446706448  3.3095632603643894  9.5795341076997342   T   T   T
  8.8135430830619299  8.8303376571665613  7.2516794772984579   T   T   T
 -0.0945052646677299  1.8796526731985534  9.4375812868077027   T   T   T
  0.0000000000000000  8.8200002909999995  1.7640000579999999   F   F   F
  1.7640000579999999 10.5840003490000001  1.7640000579999999   F   F   F
 12.8445599263931705  5.7712826284828109 12.8300441284394218   T   T   T
 12.3480004070000007  5.2920001750000001  3.5280001159999999   F   F   F
  8.8200002909999995 12.3480004070000007  3.5280001159999999   F   F   F
  9.9854424494046405 10.7493321819530046 11.1923296529078495   T   T   T
  3.6558350173555167  3.5519767416002854  7.0486183705139274   T   T   T
  6.8277240285785563  2.2281932848250929  9.3916713781079082   T   T   T
 10.5840003490000001  8.8200002909999995  1.7640000579999999   F   F   F
  5.2920001750000001  0.0000000000000000  5.2920001750000001   F   F   F
 12.3052613238851034 10.2852068877011220 14.4936022710074521   T   T   T
  1.7582905028975198 -0.4739015834481530 14.0924718499683195   T   T   T
  5.8197381728939712 10.8789415273696886 13.6317113454771413   T   T   T
 -0.0976496880369897 10.6308144553308210 12.3789966982071764   T   T   T
  1.1335951176582211  3.5924070286722500 13.3129753283252388   T   T   T
  6.9655546633310541 10.4029433207455462  7.3112373969208297   T   T   T
 12.3480004070000007  7.0560002329999998  1.7640000579999999   F   F   F
  0.0000000000000000  0.0000000000000000  0.0000000000000000   F   F   F
  7.0560002329999998 12.3480004070000007  1.7640000579999999   F   F   F
  5.2920001750000001  3.5280001159999999  1.7640000579999999   F   F   F
  9.1178674264280808  2.1530531039071281  7.4083635519113420   T   T   T
  5.0142102244783509  3.1606679041496819 13.2793779365626765   T   T   T
  8.9154833822170936  8.4726044958400291 11.7052198232979823   T   T   T
  8.5785049671500495 12.3632061138834040  7.2380104260878628   T   T   T
  7.4230556285782567 12.7046192066572132  9.6724802033324284   T   T   T
  0.0000000000000000 12.3480004070000007  1.7640000579999999   F   F   F
  3.7536492612634289  9.5462950295785305 13.8288562810269244   T   T   T
  5.3515521343763037  1.6832500796506011  7.2649602159529856   T   T   T
 12.3480004070000007  1.7640000579999999  0.0000000000000000   F   F   F
  7.1546884300154936  3.2741245428756471 11.7768004749345270   T   T   T
  0.0949067035615758  0.1539106165662052  7.2785389015142981   T   T   T
  5.2920001750000001  5.2920001750000001  3.5280001159999999   F   F   F
 12.3480004070000007  0.0000000000000000  5.2920001750000001   F   F   F
 10.5840003490000001 10.5840003490000001  0.0000000000000000   F   F   F
 -0.2854478586243718 12.2152709840794493 14.3182323000212861   T   T   T
  3.0577108854880799  3.6665135244833360 11.7498970462784875   T   T   T
  5.2920001750000001  7.0560002329999998  1.7640000579999999   F   F   F
  7.0560002329999998  1.7640000579999999  1.7640000579999999   F   F   F
  6.8180528394583577 13.1672640667186087 13.9788420549717731   T   T   T
 12.3480004070000007  8.8200002909999995  0.0000000000000000   F   F   F
 12.9347367982347841  3.5934732452856668 13.9391992914295528   T   T   T
 12.3480004070000007 12.3480004070000007  0.0000000000000000   F   F   F
  0.0000000000000000 10.5840003490000001  0.0000000000000000   F   F   F
 10.5840003490000001  5.2920001750000001  1.7640000579999999   F   F   F
  7.0560002329999998  7.0560002329999998  3.5280001159999999   F   F   F
  8.3640053916189725  7.0250907009227053  9.7234697863695647   T   T   T
  5.4490598892558086  0.1470224062745931  9.4927962773831442   T   T   T
 12.3480004070000007  0.0000000000000000  1.7640000579999999   F   F   F
 10.6646104495543508  6.7352390847484713 11.8212951061813136   T   T   T
  0.6038823777876564  5.3975883113844834  9.3283862996763141   T   T   T
 10.5840003490000001 12.3480004070000007  5.2920001750000001   F   F   F
  8.8267531928544596  4.9855167136929044  7.3831517156413158   T   T   T
  3.5280001159999999 12.3480004070000007  5.2920001750000001   F   F   F
  5.2920001750000001 10.5840003490000001  1.7640000579999999   F   F   F
  4.1618398409565538 12.6731437226525792 13.9274314309831979   T   T   T
  8.5810183889122644 10.5235580223046945  9.1581999783894670   T   T   T
  4.7523438296865947  3.3770553988544529  9.1608985404273220   T   T   T
  7.0560002329999998  7.0560002329999998  0.0000000000000000   F   F   F
 12.6695569547458433  6.2393346343722316 10.4132280770003955   T   T   T
  5.2265434981748831  0.7147924825119383 13.3135849246824645   T   T   T
  3.5280001159999999  1.7640000579999999  5.2920001750000001   F   F   F
  2.0134458630700509  9.2390719894562761  7.2471260042697105   T   T   T
  3.1830144140562564  1.2240330706122473  9.6336954345596943   T   T   T
  1.2890284859625936 -0.3688627227390354  9.5328747408965331   T   T   T
  7.0560002329999998  3.5280001159999999  0.0000000000000000   F   F   F
  7.0560002329999998 12.3480004070000007  5.2920001750000001   F   F   F
 10.3069361321976238  0.0220119847821319  7.2797628010756599   T   T   T
  5.2920001750000001 12.3480004070000007  0.0000000000000000   F   F   F
  3.5865944621607109 12.5910121985013301  9.6242872111360285   T   T   T
  3.5280001159999999 10.5840003490000001  3.5280001159999999   F   F   F
  8.8200002909999995 10.5840003490000001  1.7640000579999999   F   F   F
  5.4009584743839119  6.9094018659979524  9.5103236892489154   T   T   T
  0.0000000000000000 10.5840003490000001  3.5280001159999999   F   F   F
 12.3480004070000007  3.5280001159999999  1.7640000579999999   F   F   F
  2.0472695473790834 11.2566150867050645 13.7154900281915371   T   T   T
  1.7156217682691763 12.0066097130412217 11.4067752277117531   T   T   T
 12.0673130563197351  8.4959565318969013  7.3865743181171473   T   T   T
 10.5840003490000001 12.3480004070000007  1.7640000579999999   F   F   F
 12.3480004070000007  3.5280001159999999  5.2920001750000001   F   F   F
  8.2713665587622316 11.2609251562661701 14.1846160639388401   T   T   T
  9.4164002521928971 -0.5003813006367255 14.4996149816234166   T   T   T
  2.1196158191296441  6.2466258684414573 15.1436417490457043   T   T   T
 10.8656266050155192 14.3325439726541948 15.0261924092511432   T   T   T
 -0.6480199195335310  9.1259742201116989 11.9198215302819701   T   T   T
  0.0860678403518337  6.9974551144520412  9.6451776399336726   T   T   T
