Fe  H 
 1.0000000000000000
    14.2840003966999998    0.0000000000000000    0.0000000000000000
     0.0000000000000000   14.2840003966999998    0.0000000000000000
     0.0000000000000000    0.0000000000000000   32.0000000000000000
 Fe  H  
 256   4
Selective dynamics
Cartesian
  0.0000000000000000  0.0000000000000000  0.0000000000000000   F   F   F
  0.0000000000000000  0.0000000000000000  3.5710000989999999   F   F   F
  0.0004133867677684  0.0017861623445799  7.9055259310305344   T   T   T
  0.0346361120177515  0.0557193592317841 12.2765492944962471   T   T   T
  0.0000000000000000  3.5710000989999999  0.0000000000000000   F   F   F
  0.0000000000000000  3.5710000989999999  3.5710000989999999   F   F   F
 -0.0039022317868852  3.5537612801665892  7.9574623713987167   T   T   T
 -0.0876561323571313  3.4623121738003313 12.2801224123851398   T   T   T
  0.0000000000000000  7.1420001979999999  0.0000000000000000   F   F   F
  0.0000000000000000  7.1420001979999999  3.5710000989999999   F   F   F
 -0.0047210310660064  7.1404188640214405  7.9443593252408737   T   T   T
 -0.0887244506651283  7.1292751902513274 12.3965229643136503   T   T   T
  0.0000000000000000 10.7130002980000008  0.0000000000000000   F   F   F
  0.0000000000000000 10.7130002980000008  3.5710000989999999   F   F   F
  0.0001532682514548 10.7219582434044440  7.8995165298887127   T   T   T
  0.0406084470114854 10.7446766329252661 12.3247420266226069   T   T   T
  3.5710000989999999  0.0000000000000000  0.0000000000000000   F   F   F
  3.5710000989999999  0.0000000000000000  3.5710000989999999   F   F   F
  3.6048185668321771 -0.0257562248422963  7.8365330700974729   T   T   T
  3.6358311476871390  0.0345519939685347 12.4714647828263114   T   T   T
  3.5710000989999999  3.5710000989999999  0.0000000000000000   F   F   F
  3.5710000989999999  3.5710000989999999  3.5710000989999999   F   F   F
  3.5721734801203193  3.5858847618260437  8.0153785861618250   T   T   T
  3.6160426782748325  3.6486315938814249 12.3061896042818173   T   T   T
  3.5710000989999999  7.1420001979999999  0.0000000000000000   F   F   F
  3.5710000989999999  7.1420001979999999  3.5710000989999999   F   F   F
  3.5718346941751240  7.1396632511810560  7.9347283961272046   T   T   T
  3.5511479797018719  7.1019234744219109 12.6578972035032589   T   T   T
  3.5710000989999999 10.7130002980000008  0.0000000000000000   F   F   F
  3.5710000989999999 10.7130002980000008  3.5710000989999999   F   F   F
  3.5683630530285702 10.7087244706067537  7.8802760266673948   T   T   T
  3.5589729214741808 10.6707808931353263 12.2241765417608601   T   T   T
  7.1420001979999999  0.0000000000000000  0.0000000000000000   F   F   F
  7.1420001979999999  0.0000000000000000  3.5710000989999999   F   F   F
  7.1349544906565550  0.0003239378544817  7.8857098376787622   T   T   T
  7.1170832636042887 -0.0335268683974516 12.2249889112581354   T   T   T
  7.1420001979999999  3.5710000989999999  0.0000000000000000   F   F   F
  7.1420001979999999  3.5710000989999999  3.5710000989999999   F   F   F
  7.1506611486127198  3.5674346730826509  7.9169930662952304   T   T   T
  7.2024100193972984  3.6112941705257051 12.3706302080297714   T   T   T
  7.1420001979999999  7.1420001979999999  0.0000000000000000   F   F   F
  7.1420001979999999  7.1420001979999999  3.5710000989999999   F   F   F
  7.1681355800603725  7.1569718939069400  7.8976630469376907   T   T   T
  7.2184062530421267  7.2061295991048313 12.2117059220562041   T   T   T
  7.1420001979999999 10.7130002980000008  0.0000000000000000   F   F   F
  7.1420001979999999 10.7130002980000008  3.5710000989999999   F   F   F
  7.1455778732815736 10.6981087169707578  7.8900204706438704   T   T   T
  7.0821900256829720 10.6362434288262353 12.3186752565848305   T   T   T
 10.7130002980000008  0.0000000000000000  0.0000000000000000   F   F   F
 10.7130002980000008  0.0000000000000000  3.5710000989999999   F   F   F
 10.6972823621600490 -0.0098349702060622  7.8859301966115192   T   T   T
 10.6277735482303974 -0.0852629580342505 12.2899254597412604   T   T   T
 10.7130002980000008  3.5710000989999999  0.0000000000000000   F   F   F
 10.7130002980000008  3.5710000989999999  3.5710000989999999   F   F   F
 10.7145475188940402  3.5524094572911782  7.8784668641535740   T   T   T
 10.6906539709734840  3.5246143361785811 12.2348599573671688   T   T   T
 10.7130002980000008  7.1420001979999999  0.0000000000000000   F   F   F
 10.7130002980000008  7.1420001979999999  3.5710000989999999   F   F   F
 10.7090110771000884  7.1533367582903189  7.8948186506798796   T   T   T
 10.7667373217820614  7.1796799753318759 12.3878469830998181   T   T   T
 10.7130002980000008 10.7130002980000008  0.0000000000000000   F   F   F
 10.7130002980000008 10.7130002980000008  3.5710000989999999   F   F   F
 10.7180307837152728 10.7238955949635191  7.8763795689890843   T   T   T
 10.7527244573439393 10.7878725518626766 12.2075088564930656   T   T   T
  0.0000000000000000  1.7855000500000000  1.7855000500000000   F   F   F
  0.0067026836251745  1.7860169863105682  5.7660914610585650   T   T   T
  0.0025807113062130  1.7826172563266225 10.1044009367029481   T   T   T
  0.4356275332791308  2.0609502923915763 14.6357283220316905   T   T   T
  0.0000000000000000  5.3565001490000004  1.7855000500000000   F   F   F
 -0.0115992643306873  5.3594919082964223  5.7991803805435485   T   T   T
 -0.0667571336186217  5.3320791023478495 10.1109782671443700   T   T   T
 -0.4272811707457108  5.0602106806562395 14.4536280114265292   T   T   T
  0.0000000000000000  8.9275002479999994  1.7855000500000000   F   F   F
 -0.0016988770265415  8.9294691084080942  5.7904619577009733   T   T   T
  0.0121726733133156  8.9328835707235275 10.0909049679613148   T   T   T
  0.4195596325952083  9.1429867441914237 14.4630774723314790   T   T   T
  0.0000000000000000 12.4985003470000002  1.7855000500000000   F   F   F
 -0.0080176285785760 12.4973527509925599  5.7661151789799128   T   T   T
  0.0107986172236007 12.5065623279796529 10.0705711481146860   T   T   T
 -0.3707456936201112 12.2948001426881461 14.5884483401276324   T   T   T
  3.5710000989999999  1.7855000500000000  1.7855000500000000   F   F   F
  3.5740500544150580  1.7837261812243494  5.7891591586526978   T   T   T
  3.5856619028548424  1.8362890158876395 10.2402886269026467   T   T   T
  3.2176237860568402  1.5568348109330625 14.9045704527929175   T   T   T
  3.5710000989999999  5.3565001490000004  1.7855000500000000   F   F   F
  3.6016550125389841  5.3886285618592256  5.9367038616178487   T   T   T
  3.6087286372693330  5.3759392099494860 10.1121296016312066   T   T   T
  4.0512662109102404  5.6035316642399655 14.7861033569925091   T   T   T
  3.5710000989999999  8.9275002479999994  1.7855000500000000   F   F   F
  3.5644281791922339  8.9162739317795996  5.7698479997571610   T   T   T
  3.5451998919270218  8.8888429665559663 10.0715909934801129   T   T   T
  3.1500801162334033  8.6637818376424729 14.7762247771622128   T   T   T
  3.5710000989999999 12.4985003470000002  1.7855000500000000   F   F   F
  3.5768694291280738 12.4943912889033193  5.7781428388775860   T   T   T
  3.6014411564782702 12.4853471704704511 10.0662799311130815   T   T   T
  4.0103016165295999 12.6997003512801427 14.6520309649763689   T   T   T
  7.1420001979999999  1.7855000500000000  1.7855000500000000   F   F   F
  7.1445651190928530  1.7973678772313606  5.7607197778766013   T   T   T
  7.1564102078675713  1.7958149382320729 10.0702440191911382   T   T   T
  7.5660941622920914  2.0177110873609423 14.6485242694281972   T   T   T
  7.1420001979999999  5.3565001490000004  1.7855000500000000   F   F   F
  7.1402002622679097  5.3524174086189387  5.7925161829106200   T   T   T
  7.1759760582436689  5.3647232959023787 10.0830841934950115   T   T   T
  6.7717372418056492  5.1151917245210354 14.7218248601136281   T   T   T
  7.1420001979999999  8.9275002479999994  1.7855000500000000   F   F   F
  7.1563951416976774  8.9364246640554210  5.7615280548435823   T   T   T
  7.1812571537010399  8.9432138157258692 10.0643684900857338   T   T   T
  7.6091842051863505  9.1901582163141615 14.6567628096503419   T   T   T
  7.1420001979999999 12.4985003470000002  1.7855000500000000   F   F   F
  7.1487550121516961 12.4863726719010639  5.7615539810906293   T   T   T
  7.1018666787301381 12.4727725928377033 10.0512683735880088   T   T   T
  6.7224256143740888 12.1881225506633619 14.5970883225821702   T   T   T
 10.7130002980000008  1.7855000500000000  1.7855000500000000   F   F   F
 10.7014363859713661  1.7834245257329753  5.7523247045958925   T   T   T
 10.6705792829798156  1.7355764343773130 10.0651792629424044   T   T   T
 10.2980203661586334  1.4783136707004920 14.5075050771706611   T   T   T
 10.7130002980000008  5.3565001490000004  1.7855000500000000   F   F   F
 10.7156295639049297  5.3632503498309561  5.7656312676517674   T   T   T
 10.7359157440602484  5.3544792386504616 10.0313384762892728   T   T   T
 11.1377533905847717  5.5823664496991743 14.5101956066321467   T   T   T
 10.7130002980000008  8.9275002479999994  1.7855000500000000   F   F   F
 10.7077659203730491  8.9167083348815357  5.7514927971669385   T   T   T
 10.7155089659500984  8.9489884617330340 10.0762323941580743   T   T   T
 10.3143106950126580  8.7099792735086048 14.6156800074170565   T   T   T
 10.7130002980000008 12.4985003470000002  1.7855000500000000   F   F   F
 10.7094940627325919 12.4997926608409298  5.7488943512845818   T   T   T
 10.7269866895039261 12.5204915932479590 10.0443031274375230   T   T   T
 11.1644640735611844 12.7683208745257044 14.5819132853511153   T   T   T
  1.7855000500000000  0.0000000000000000  1.7855000500000000   F   F   F
  1.7877361762773911 -0.0060211262638390  5.7637782729032407   T   T   T
  1.7834872403962854 -0.0087863639933487 10.2524876373877500   T   T   T
  1.6121704002512409 -0.3723632391128093 14.3781144170367963   T   T   T
  1.7855000500000000  3.5710000989999999  1.7855000500000000   F   F   F
  1.7617007373442384  3.5540823248626405  5.9248219597139649   T   T   T
  1.7743704829957880  3.5929810049035464 10.1883847402151773   T   T   T
  2.1021870755955008  3.9801274252492820 14.5466821918318541   T   T   T
  1.7855000500000000  7.1420001979999999  1.7855000500000000   F   F   F
  1.7745698687037486  7.1503689505751877  5.7824275821604045   T   T   T
  1.7317249149276217  7.1106947546433288 10.1259167908438599   T   T   T
  1.4888180274706624  6.7141738757580880 14.6904699054057826   T   T   T
  1.7855000500000000 10.7130002980000008  1.7855000500000000   F   F   F
  1.7773435931091848 10.7134900703433953  5.7619708522929258   T   T   T
  1.8049269191639461 10.7232844885149934 10.0850750436883292   T   T   T
  2.0403654453053575 11.1018418945749016 14.4457070427337992   T   T   T
  5.3565001490000004  0.0000000000000000  1.7855000500000000   F   F   F
  5.3591954993364226  0.0019011288241106  5.7565146828159293   T   T   T
  5.3646312231689341  0.0185654388358555 10.1175598691132578   T   T   T
  5.6254445017989623  0.3853730430687535 14.4194362155769511   T   T   T
  5.3565001490000004  3.5710000989999999  1.7855000500000000   F   F   F
  5.3599820759024697  3.5686122127367641  5.8011527637421914   T   T   T
  5.3766072520555070  3.5924332383431423 10.1466651462674857   T   T   T
  5.1335109787026285  3.1796881353392052 14.4154383434928519   T   T   T
  5.3565001490000004  7.1420001979999999  1.7855000500000000   F   F   F
  5.3614283890910768  7.1428527471979493  5.7628509631711573   T   T   T
  5.4108487538345731  7.1543596245320469 10.0993158380842338   T   T   T
  5.6911218994594117  7.5418239129208153 14.4120815511299316   T   T   T
  5.3565001490000004 10.7130002980000008  1.7855000500000000   F   F   F
  5.3649589756126348 10.6978611765269545  5.7504739600944408   T   T   T
  5.3377094128390841 10.6659089269680702 10.0711831313710061   T   T   T
  5.0981134601321374 10.2445393403754501 14.3732515279954285   T   T   T
  8.9275002479999994  0.0000000000000000  1.7855000500000000   F   F   F
  8.9202399882010273 -0.0058190175788106  5.7459196076527892   T   T   T
  8.8910732382810895 -0.0361734657187937 10.0574820925848183   T   T   T
  8.6472893447456709 -0.4484058461000631 14.4125889429040868   T   T   T
  8.9275002479999994  3.5710000989999999  1.7855000500000000   F   F   F
  8.9379290063677015  3.5746961561379162  5.7572583035610485   T   T   T
  8.9473862757837459  3.5754020486160303 10.0794382377427034   T   T   T
  9.1842037493393711  3.9543164775214255 14.4026893010471131   T   T   T
  8.9275002479999994  7.1420001979999999  1.7855000500000000   F   F   F
  8.9247909955165614  7.1387092443172433  5.7538488547535511   T   T   T
  8.9574723322200107  7.1553351815204476 10.0909146579070281   T   T   T
  8.7241190695141135  6.7247508496784141 14.3715044177371105   T   T   T
  8.9275002479999994 10.7130002980000008  1.7855000500000000   F   F   F
  8.9375144323724154 10.7159416182086922  5.7484952337323030   T   T   T
  8.9459281647506828 10.7370139092879864 10.0631872064213539   T   T   T
  9.2232585690292943 11.1351774407260695 14.3794426785424854   T   T   T
 12.4985003470000002  0.0000000000000000  1.7855000500000000   F   F   F
 12.4870725097352935 -0.0054342775194240  5.7473539436479530   T   T   T
 12.5167775991414914  0.0061594849251754 10.0744225644397893   T   T   T
 12.7797225225953941  0.4448442471922140 14.4510518504904333   T   T   T
 12.4985003470000002  3.5710000989999999  1.7855000500000000   F   F   F
 12.4997449073529054  3.5753344002186522  5.7603872079477014   T   T   T
 12.4609965819558681  3.5071017770265280 10.0643948551369249   T   T   T
 12.2048247489914203  3.1412060675277749 14.5028630140677226   T   T   T
 12.4985003470000002  7.1420001979999999  1.7855000500000000   F   F   F
 12.5064842079741911  7.1463277998333892  5.7626501747237304   T   T   T
 12.4894136660591268  7.1720284425111958 10.1069398778705661   T   T   T
 12.7089562791115700  7.5876744703739556 14.5449798153536953   T   T   T
 12.4985003470000002 10.7130002980000008  1.7855000500000000   F   F   F
 12.4890242391932187 10.7053220716644208  5.7527838619390614   T   T   T
 12.4997937940030752 10.7257427073402543 10.0592616676800919   T   T   T
 12.2906673767761330 10.3203791878161333 14.3904360582003363   T   T   T
  1.7855000500000000  1.7855000500000000  0.0000000000000000   F   F   F
  1.7855000500000000  1.7855000500000000  3.5710000989999999   F   F   F
  1.7850973078343335  1.7869657066566551  7.9188008860769346   T   T   T
  1.8558752444737350  1.8302904064187611 12.4059900019920395   T   T   T
  1.7855000500000000  5.3565001490000004  0.0000000000000000   F   F   F
  1.7855000500000000  5.3565001490000004  3.5710000989999999   F   F   F
  1.7651940449314032  5.3650309210330631  8.0162492855327958   T   T   T
  1.6290423696922141  5.2922819038234348 12.3719284348620810   T   T   T
  1.7855000500000000  8.9275002479999994  0.0000000000000000   F   F   F
  1.7855000500000000  8.9275002479999994  3.5710000989999999   F   F   F
  1.7799042993027305  8.9136092735871451  7.9659161250306711   T   T   T
  1.7710000388340401  8.9017232588093815 12.2337054556637259   T   T   T
  1.7855000500000000 12.4985003470000002  0.0000000000000000   F   F   F
  1.7855000500000000 12.4985003470000002  3.5710000989999999   F   F   F
  1.7825129896125946 12.4928090912993248  7.9455833852327684   T   T   T
  1.8457240008770488 12.5167618249259878 12.1830855849970501   T   T   T
  5.3565001490000004  1.7855000500000000  0.0000000000000000   F   F   F
  5.3565001490000004  1.7855000500000000  3.5710000989999999   F   F   F
  5.3591083626153697  1.7892888463751746  7.9553285909228064   T   T   T
  5.4171332464421020  1.8250126050307436 12.1950128147578880   T   T   T
  5.3565001490000004  5.3565001490000004  0.0000000000000000   F   F   F
  5.3565001490000004  5.3565001490000004  3.5710000989999999   F   F   F
  5.3657501599159607  5.3665474483497722  7.9793355394205339   T   T   T
  5.4533194494984452  5.4218945628382249 12.3144707820129273   T   T   T
  5.3565001490000004  8.9275002479999994  0.0000000000000000   F   F   F
  5.3565001490000004  8.9275002479999994  3.5710000989999999   F   F   F
  5.3549845012134218  8.9195064877718178  7.9240352082984797   T   T   T
  5.3064242602352190  8.8542920956262865 12.1366995430320959   T   T   T
  5.3565001490000004 12.4985003470000002  0.0000000000000000   F   F   F
  5.3565001490000004 12.4985003470000002  3.5710000989999999   F   F   F
  5.3593259053025335 12.4911270408526889  7.9478007052027957   T   T   T
  5.3394097196052961 12.4600784964913984 12.2205733077311098   T   T   T
  8.9275002479999994  1.7855000500000000  0.0000000000000000   F   F   F
  8.9275002479999994  1.7855000500000000  3.5710000989999999   F   F   F
  8.9272398555926884  1.7756651480670291  7.9295088532947959   T   T   T
  8.8981321664575539  1.7542568630240225 12.2092436300031046   T   T   T
  8.9275002479999994  5.3565001490000004  0.0000000000000000   F   F   F
  8.9275002479999994  5.3565001490000004  3.5710000989999999   F   F   F
  8.9353522343351450  5.3574533462212557  7.9182985742714314   T   T   T
  9.0025197615164458  5.3819117321038519 12.1412655018481530   T   T   T
  8.9275002479999994  8.9275002479999994  0.0000000000000000   F   F   F
  8.9275002479999994  8.9275002479999994  3.5710000989999999   F   F   F
  8.9446688119677837  8.9369034858827625  7.9340482871621942   T   T   T
  8.9918078460900510  8.9886071710394582 12.2308077556962473   T   T   T
  8.9275002479999994 12.4985003470000002  0.0000000000000000   F   F   F
  8.9275002479999994 12.4985003470000002  3.5710000989999999   F   F   F
  8.9158964868549937 12.4955458872763483  7.8922102311752971   T   T   T
  8.8482673568345298 12.4393415395731477 12.1332980110050723   T   T   T
 12.4985003470000002  1.7855000500000000  0.0000000000000000   F   F   F
 12.4985003470000002  1.7855000500000000  3.5710000989999999   F   F   F
 12.4888802458536272  1.7623051612594298  7.9117535754806516   T   T   T
 12.3948455275264156  1.7066585627543538 12.1979125911337540   T   T   T
 12.4985003470000002  5.3565001490000004  0.0000000000000000   F   F   F
 12.4985003470000002  5.3565001490000004  3.5710000989999999   F   F   F
 12.4811566768068385  5.3605656727285194  7.9307609256584088   T   T   T
 12.4625572944765999  5.3097415661252141 12.1442064017457305   T   T   T
 12.4985003470000002  8.9275002479999994  0.0000000000000000   F   F   F
 12.4985003470000002  8.9275002479999994  3.5710000989999999   F   F   F
 12.4914527972280229  8.9349971744220689  7.9190876063470892   T   T   T
 12.5266187195711272  8.9836836235354447 12.1619539897659301   T   T   T
 12.4985003470000002 12.4985003470000002  0.0000000000000000   F   F   F
 12.4985003470000002 12.4985003470000002  3.5710000989999999   F   F   F
 12.5052535815463575 12.5111747223039664  7.9130936440625783   T   T   T
 12.5433067017372792 12.5472500887706477 12.2076012996807961   T   T   T
  2.7338801085406694  0.8598341374195080  9.0784973936421629   T   T   T
  2.6868329181341268  4.4768389138950102  4.7669075955693172   T   T   T
 12.3671686381253849  4.6867583921200309 15.6099409945385332   T   T   T
  2.7092285584827249  6.2617766686092677 11.3727166633674202   T   T   T
