Cr Co Ni  H 
 1.0000000000000000
    14.1120004653999995    0.0000000000000000    0.0000000000000000
     0.0000000000000000   14.1120004653999995    0.0000000000000000
     0.0000000000000000    0.0000000000000000   14.1120004653999995
 Cr  Co  Ni  H  
  86  85  85   4
Cartesian
  5.3651944298257810  1.7570434700460931 -0.0689481250321205
  3.4919032951424298 12.2834489440272385  1.7724083467923362
  3.4497656899939151  5.2997042797459768 12.2919965863493150
 -0.0028889788430683  3.5088543891526278 -0.0966853567622950
  1.7305720655137320  3.4676663819750400  1.7850606018349251
  5.2542116070563365  7.1154410815618823  8.8667759270734052
 12.3774717542448638  5.3056994725428588 10.5341152105322262
  8.8408228204137398  8.7435851252088543 10.5528382210900133
 10.6183395540012171 10.5929477722805299 -0.0237463106974931
  3.5017870303912497 -0.0301087996795767  7.1491762267540944
  7.1652063974604037 10.5070152597050956  3.5422104452639189
 10.5745873400976080  8.7631063333157044  1.7998471100160545
  3.4747757038044393  8.8551393557588369  8.7604492196308961
 -0.0923389365199500 10.5364605017085022 10.5796009720787616
  3.3823220852798954  7.1154149892249094  3.5471202951873861
 12.3480118364580544  6.9543349912150356  1.7596520958435016
  8.9123528079827707  1.7992970940924988  7.0739125589015650
  5.2441975866367860  1.6980693134681633 10.5524422765122416
 10.5112677251527362 10.5599883693488259  3.5571783035171380
 -0.0973447656995355  0.0938751133068826  7.1655720110742251
  7.1066575579262858  8.8577664597738099 12.3431384794859191
  5.2712625365038219 -0.0756240488279188 12.2869200586897946
 10.5877130544745626  3.6226681914952268  3.6334388388136460
 -0.0710106116001592 12.2742198542774972  8.8251700461505891
  3.5199154497910090  5.3486442664321459  1.7620677573179464
 12.3845416827414674  5.3072527639865728 -0.1456378163482213
 -0.0466157135611733  0.0619216075217719 -0.0270618319365060
  1.7388213785015305  8.8402380837193419 10.5378785923494860
 10.5860076440724207  3.5195144269638932 -0.0305912070948857
  3.4980293705795944 10.6614361496149748 10.6230644951260125
 12.3858259863608478 10.5997113596425141  5.3146428097192659
  7.0872632493428798  1.6576951862094367  8.7942907774121242
  5.3033343140935054 10.5624607397192811  1.8243091182787838
  1.7037516047062649  5.3156077533940618 -0.0087717564804081
  7.0927902887349230  1.7885609802764892  5.2313003611361975
  1.7266516493604327  1.8133869821651669  7.1605104413132308
  1.8353890930668828  0.0939428471887677  5.2184926356711241
  7.0969241277093404  7.0882334874743727  7.0365969705878522
 12.3370001458619409  1.7929030566496076  3.6015187996011857
 12.4058377320034570  8.7915990529416170  3.5686502311240806
  7.1152184021090932  1.8022081423527021  1.7878743292664960
  5.2722796017932714 10.5315617261418506  5.2455866388962500
  5.2520219215132231  8.8540866229676212 10.6690963830050336
 10.5737233795769470  1.7904398202623792  1.7894105256210864
  7.0454282970596704  3.4986105137650210 10.5214349541263754
  7.1209635975237715  5.3370871336466710  8.8685776929538829
  5.2983308279546835 10.5894975203986323  8.7965701632532927
  8.7387623092886706  5.2987969522285674  3.5985092862960508
  1.7597558476217738  0.0575820329316341  1.7826028671314980
 10.6019719914247954 12.3391530445626465 12.3000096594200663
  7.1077141169114437  3.5962719366677609  7.0856608463182944
  8.8796242143100539  8.7728933251552377  7.0551535994239174
  7.0590061263032986  5.3140434970386332 12.3576736797822537
 10.5986043859234762  0.0095883696148078 -0.0534564078780563
  1.7773896571236429 12.2552442318359525  7.0965699529367958
  3.5049010272345744  3.5440469408311230 10.5050332463952820
  3.3984821957477593  8.8717297924608030  1.7509683378616578
  5.3759365673799060  5.3909718610818453  3.5409290027254445
  0.0959143795110115  7.0398690749180810  3.5500381640874119
  5.2394651350294454  1.7948537129641746  7.1412707431499127
  8.7959478141477181  3.4776568484694179 12.3836036272425254
 -0.0748459721820044  0.0015682537464188 10.5299215779547790
  8.8276252335850902 10.5867367896267073  8.8611885982762892
  8.8519104373405018 -0.0367804096005294  1.8156007285009301
 10.6713438421439850 12.3228368269698070  1.7864955956198980
  3.5016677813929826  3.4102269579922155 -0.0365068246514876
  0.0392254915086302  5.3025203316135752  5.3979558131935095
  5.2674812317845499  3.5201592220110398  5.2373728031169220
  0.0218067031654267  7.0988235263665977  0.0097461540320985
 -0.0033025847399952 -0.0338072378490832  3.5485274719122812
 10.6254916403543866 10.6259100571165614  7.0757997404977129
 12.3171531121023108 -0.0495175787940411  5.3300728057853330
  5.2975742897485913  8.8898750543593028 -0.0153350019921764
  5.2334648262550107  7.0266764465671168 12.3794688385304372
 12.3651165309105444  3.7225370978026087  1.8437038534119450
 10.6424029783881569  3.4983797462745625 10.5643970095551367
  8.8846670589799519 -0.0094826145578585  5.2149435880827903
  5.2242975713663675  5.3263510076981131  7.0455171462483976
  8.8572130921100527  8.7970310918269288 -0.0480878899677161
  5.2837557602730927  0.0353778154516625  5.2739150890053867
  3.4169113606064490  5.3305290626298705  5.2886556538643665
 -0.0559770854553340 12.2454206048996834  1.7670762960018718
  5.2862408711995812 12.3366564014897424  7.0458945981454146
 10.6371783659037664 -0.0560312371467393  7.1264617353253508
  8.8908421490189546  1.6659623675013564 10.5744709453353209
  3.5059482421278574  0.0013146557489344 -0.0314220137180835
  1.7405133695506259 12.3587665558061754 10.6598250466350883
  7.1434028230514173 12.3125191083127454 12.3311253517755617
  3.3482344693107322  1.7336719214577481 12.2387222624350223
  5.2978742934299943  8.8349701515153214  7.0001475011754346
  0.0038085550575890  3.5610027137774867  3.6072340078111265
  7.0272919118808410 -0.0948572631476286  3.4979127746813883
  7.1236747547411827 10.6918466124543325 -0.0082102713292311
  7.0933815253875343 12.3781006031821477  8.8248989882006015
  1.7162295175355480 10.5309306363815445  5.2931099543404141
  8.9400283167760062  3.6142141178882774  8.8044417163650568
  3.4331118753354462  7.0240531100143384 10.5627062665338407
  8.8849707732703749  1.8425481152360195  3.5734775560524898
  5.2777738801368281  7.1879204412076110  5.3143178680661221
 10.6137143653456913  6.9721094941269657  3.6149261272033022
  1.6897217234351070  7.0206249937706513  8.7655109421005495
  3.5521833745838873  0.0415487265642451  3.5055313861727284
  3.4794704408319705 12.3024600739264667  5.1864961142232469
  3.6028788463028429  1.7561076796023027  1.8296937463009777
 10.6993052007812679 10.4884446854714497 10.5501582614529177
  1.7289477366793145 -0.0093702973903622 12.2778849833180832
  1.6775397998729440 12.2939378816964613 -0.1089560933641393
  5.3907586513322325  7.1364407864308159  1.7219792211874005
 -0.0026735613296536  1.7610748593747112  1.8592298753425636
  3.4515652736134639  7.1036891105902811  0.0150843504002595
 12.4222471671721681 12.3213953618349201 -0.0767437639830551
  7.0227824459972066 10.7090699715636504 10.6247520740971737
  8.8625619435507677 -0.1526790545166000  8.8411305160805380
  1.7755098092632038 -0.0259425038484745  8.9228368761360013
  5.3091040034676658 10.7329227064485728 12.4007151781154921
 10.5143956760922705  5.3829443603201756  1.7451660367397404
 -0.0082458045708243  1.7947937238076614 12.2197096811426835
  1.6649811423927561  5.3684332451567078 10.5167035845064341
  8.8426815038629929 12.3625812360928986 10.5632147434591452
  1.6771122327064745  8.8601600814830199  7.0658285895085333
  7.1254864661139354 12.3374663082483274  5.2929607172023116
 12.3550265642682220  0.0554158310765352 12.2678213437057249
  8.7579514102426117 12.3179183420986398  7.0429444171883988
  3.5199952735814510  3.4707685362458163  3.4952104779504638
  3.4515555800122031  8.8255631076406562  5.3756657553027818
  1.7745261940943784 12.2188979902205599  3.5985674061969091
  3.4554041307063286 10.5731780681791179  6.9892961918343390
  7.0621547687715118 12.3767633560531376  1.7456755094683807
  5.3015956568746461  8.6950521286320441  3.5271984214386749
  8.9472175046531994  5.3067982514348842  7.0088002996366550
 12.3150687056952926  5.2987915135064956  7.1366904620235925
 -0.0681606521446492 12.3267575597959418 12.3530727495627968
 12.3663777601501330  8.7549631340640648  7.0430270461090041
  7.1011843494876787 10.5454807393575578  7.0083751171178950
  1.7893602773165513  3.4757664423387284  5.2857523703680842
 12.3720091075171954 12.3109379903676093  7.0992944588005011
  3.4459655390295358  5.3820789061817385  8.8048032212935361
  0.0094427612427375 12.2272415998735742  5.2538737118287742
  5.3711846315929499 12.3365883731610335  0.0090825064857444
 -0.0510866230201724  8.7938178311148434 12.3726623056976539
  1.7667965140917634  7.1180727266540957 12.3000644824609839
  3.4646157732164502  3.5431591766177322  7.1630860416599544
  3.4541154299448644  7.1148665171963428  7.0308521311277241
 10.5621234907322421 12.3217855529205877  5.2861052664476951
 10.7381284385834395  8.7463453289987214  8.8163931156468784
  5.2385991983244589  5.3223470498632821 10.5113442083101170
  3.4484986097232588  8.8351092964771762 12.4237161958320126
  8.9591250492530090  5.3215794655954918 10.6007047971780626
 12.3426534943327173  7.1381051888520410 12.3015570893800827
  8.7669173039912582 10.6275530443909769  1.7202795416420931
  8.8038692870874122  7.0076512329124743  1.7753059571188445
 -0.0081078581433148  1.9164972850513495  5.3302438548512416
  1.6839048540347599 10.5950624029652207 12.4199861233522952
  7.1068028887486125 -0.1034518490459550 -0.0531476702462088
 12.3334045381764312  8.7970875860952980 -0.0155046638256297
 10.5434806199190252  5.3959388588888686 12.3295694502022943
  5.3326416665840606 -0.0493021016852722  1.7789928451895920
  0.0454562450752346  8.8103699087604337  5.4079925538499483
  0.0680212253170818  5.3441077599676579 12.2132817887684020
 10.6100556048965426  8.7086888481701301  5.2944931463277456
 12.3533980290920571  5.3346673567978984  3.6112897946468618
  1.6656397612846019  3.4765061567549957 12.2244380993637520
  0.0414823084004897  5.2765116686161662  1.8485924246085126
  0.0531161007163424  8.9293558234014014  1.7379271169778603
  5.3020136639483910 12.3978595189184109  3.5444141403197391
  5.2932947601182372  3.5528648290762068  1.8307211394292737
  7.1149083243224620 -0.1409750034333691 10.5678803749673733
  1.7308190838176245  1.7439719330881294 10.5075595751503315
 10.6590358561879555  8.7719036013742357 12.2938460698079499
  7.0924892910772090  7.0079997695309277  0.0826614456139184
 -0.0091645827442431  7.1102219374438667 10.5730467397757160
  8.8792223007235211  8.7241345398589321  3.5544372421793167
  7.0085223830627728  8.8457942276530055  8.8558651920840976
 10.5924179056938232  1.8086910846111719  5.3108590066884975
 10.6043447829890436  7.0402081075007263 -0.0396710439489212
 12.3107551508358366 12.3164890675245129 10.5808644113298271
  5.2903522939302388  1.7596389634673550  3.4897753972960648
 10.6247245323377673 -0.0248939348948334  3.5521809011405634
 -0.0147121036081222  3.5247739555006308 10.5447369124281281
  8.8204038989602829 12.3376974197071334 -0.0145181970040696
 -0.0534469982429192  1.8062023563446565  8.8492325966001886
  7.1405237353052842  8.7988206950269596  1.7404904885918360
 12.3821433305444586  7.0573345684352269  8.7923821048270945
  1.7143822596568707  3.5741363637644405  8.8502756588369103
  5.2921469304922297 -0.0744914209626418  8.8484718054120730
 10.6474161617754604  5.3290030140850284  5.3674964186727845
  0.0022914701092727 10.5502127055446469  3.5509201251597546
 12.3498482949408697  3.5310940951772136  8.7829661875483929
  3.4689451083576350 12.3207354898582544  8.8603796300665234
 12.3688617814748287 10.5024950397074850  1.7675477791843819
 10.5997321691836159  5.3168229738089137  8.7836644512245172
  8.8438440300473289  5.3206895299849322  0.0199907471453140
  7.0710248383538614  3.5288709052872931  3.5296302894333658
 10.6331372481495308 -0.0062945101982980 10.5523587854694245
  3.4673786555182331 12.3391039127937976 12.3616528615027228
  7.0615297670370341  5.2917026549926458  1.7499679672031077
  1.6869501135934006  8.8753454106125798  3.5707054867994930
 10.6241114958242395  3.5706347958219946  7.0747474157748709
  5.3011860822235617 12.3427063171327553 10.5677151206513802
 -0.0252912298982229  8.8039603578979424  8.7826391916591806
 12.3551709852406209  3.5071237631616903 12.2921200057832376
  1.7391542536128457  7.1167598138432888  5.3779695918276698
  5.3009671439583474  5.3484098323005078  0.1269136880320196
  8.8586554148115368 10.5865902265765879 12.2574429972025989
  7.0582552570343422  3.5581429123073836  0.0271623313768434
 12.3561418677233696  0.0127758375724477  1.7772872662725048
 10.6099288335025133  1.7712722192944086  8.8096545491425022
  8.8576114925976839 10.5698796698042266  5.3351291077361962
 10.6527474717302209  7.0508818644284181  7.0506182677498543
  1.7787160512365070  5.2730945782871590  7.1033527102751028
 12.3442762425481334 12.3079331649773991  3.5587991937957466
  7.1030696177076438 -0.0401837111870777  7.0542349770853319
 12.3007862397582528  0.0121299013976747  8.8266807624309234
 12.3028512234185659  1.7464050528379822 -0.0899152041175538
  8.8416068641438912  7.0337883459441670 12.3547800734977518
 -0.0075224282412812  5.3059860818937716  8.7830078899160444
  7.0907845621035444  1.6810858643259945 12.3059365478577885
 10.6307186969851095  7.0523189393468364 10.5673851494385591
  8.8189047632701492 12.3188472534997455  3.5313024201279877
  7.0666454294355434  7.1159367645379819  3.5430024488590406
  7.0965477384395461  8.7853603692423938  5.2905938321479864
  8.7858303654633492  1.7122137210485502 -0.0337070552987482
 12.3600709972471670  8.7618103748772853 10.5628552401072842
  1.7411937106779731  1.8121213136483014  3.5541757924691963
 10.6177094487330113  1.7179255980184756 12.3217666336572460
  1.7293242664852175  8.8536697400802673 -0.0433725294750667
  3.4549173718057529 -0.0554610248957291 10.5670405579595368
 -0.0682946542086075 10.5341117154128643 -0.0441787365438587
  1.7577999586654069  5.2429934242655634  3.5230567017549701
  1.7196691288170036 10.6067436468734471  1.7330343126792715
 12.3309210623353280  1.8177021717542694  7.0582976172557093
  3.4922138893204648 10.5199835564296720  3.5787992565550693
 12.3296414374229570  1.7761679307105449 10.5488373658336130
  5.2480261061371936  3.6072290223880028  8.7970094006559592
  3.4869099484477579  1.7426136090827060  8.8413953820624176
 12.3578332280019954  3.5818481184340327  5.3544999593254117
 10.6289253269199371 12.3109029023137531  8.8790941860515176
 -0.0303419141069516  3.5409929693562177  7.1081626480011328
  5.3637792665278612  3.4662769974783894 12.2475713110988504
  1.7341267143417689 10.5851830316129565  8.8110870531938605
 -0.0139069526580475  7.0666380218468143  7.0903152784402748
  8.9596727101504090  7.0750404379646188  8.7428735276912928
  7.0375096928002936  5.3296212522019841  5.3543538320940547
  8.8342835804882505  3.5650078758848562  5.3486097502682295
  1.7018070156339509  7.0800159275491268  1.7492870578376853
  8.8156418083997981 -0.0332841209907064 12.3212765455073239
 -0.0450772276636041 10.5451487492298437  7.0773855175118232
 12.3389810707692007 10.5176541966207679 12.3399347488040867
  8.8437322670578062  3.5675566233314266  1.7500288655025877
 12.3252166607150659 10.5227220090489091  8.7948970037812195
 12.3774232072515531  7.0530340805550491  5.3388367625600637
  6.9794626043712169  7.0789183969528677 10.6567010244613929
  3.4982416211043765 10.6314760182380397 -0.0607752807471380
  1.7476017644848072  1.7506840736666118 -0.0610381102850675
  8.8666961288349615  7.0478596237077991  5.3090284213513845
  3.5232834290605819  1.8191094998093855  5.2825775493073692
  4.6441716016431149  4.4077296312655090 13.2190626218026654
 13.1018202819832368  2.5162407665203803  0.9096030709862563
  0.8046962219521091 13.2551663997447005  6.1287341666956054
  8.0896010160382961  6.4727964788856909  9.8348269834749011
