Cu  H 
 1.0000000000000000
    14.5804395675999992    0.0000000000000000    0.0000000000000000
     0.0000000000000000   14.5804395675999992    0.0000000000000000
     0.0000000000000000    0.0000000000000000   32.0000000000000000
 Cu  H  
 256   4
Selective dynamics
Cartesian
  0.0000000000000000  0.0000000000000000  0.0000000000000000   F   F   F
  0.0000000000000000  0.0000000000000000  3.6451098919999998   F   F   F
 -0.0046017504669900 -0.0104562665634003  7.2875538760921215   T   T   T
 -0.0107909913687885 -0.0116828138382219 10.9749501757452528   T   T   T
  0.0000000000000000  3.6451098919999998  0.0000000000000000   F   F   F
  0.0000000000000000  3.6451098919999998  3.6451098919999998   F   F   F
 -0.0153389338553972  3.6444336392898689  7.2768025472610560   T   T   T
 -0.0613869826085366  3.6916144814345846 11.0364599866990147   T   T   T
  0.0000000000000000  7.2902197839999996  0.0000000000000000   F   F   F
  0.0000000000000000  7.2902197839999996  3.6451098919999998   F   F   F
 -0.0383192088515696  7.2573898060279731  7.2981944605831730   T   T   T
 -0.0175371478149092  7.2856275278597380 10.9836931138247156   T   T   T
  0.0000000000000000 10.9353296760000003  0.0000000000000000   F   F   F
  0.0000000000000000 10.9353296760000003  3.6451098919999998   F   F   F
 -0.0657519460358786 11.0026509834230044  7.3772430481509765   T   T   T
 -0.0075172378202548 10.9435705300888184 10.9630715636239273   T   T   T
  3.6451098919999998  0.0000000000000000  0.0000000000000000   F   F   F
  3.6451098919999998  0.0000000000000000  3.6451098919999998   F   F   F
  3.6578747506822227  0.0038025424796923  7.2963166737208933   T   T   T
  3.6624185940540310 -0.0105372975890706 10.9636783793201307   T   T   T
  3.6451098919999998  3.6451098919999998  0.0000000000000000   F   F   F
  3.6451098919999998  3.6451098919999998  3.6451098919999998   F   F   F
  3.6602718057465946  3.6434649898487028  7.2815270054180212   T   T   T
  3.6683166227150155  3.6465230114144251 10.9712383360771693   T   T   T
  3.6451098919999998  7.2902197839999996  0.0000000000000000   F   F   F
  3.6451098919999998  7.2902197839999996  3.6451098919999998   F   F   F
  3.7143993816260834  7.2284265772478955  7.2183710758532786   T   T   T
  3.6575870978767031  7.2861688561527931 10.9736428110779638   T   T   T
  3.6451098919999998 10.9353296760000003  0.0000000000000000   F   F   F
  3.6451098919999998 10.9353296760000003  3.6451098919999998   F   F   F
  3.6855512910055164 10.9690610040290206  7.3017618853605866   T   T   T
  3.6520588520324586 10.9531856139047381 10.9796410382128773   T   T   T
  7.2902197839999996  0.0000000000000000  0.0000000000000000   F   F   F
  7.2902197839999996  0.0000000000000000  3.6451098919999998   F   F   F
  7.3000290315873269  0.0047743410911443  7.2936044388890755   T   T   T
  7.2938968943571112  0.0015535920728822 10.9550167419006392   T   T   T
  7.2902197839999996  3.6451098919999998  0.0000000000000000   F   F   F
  7.2902197839999996  3.6451098919999998  3.6451098919999998   F   F   F
  7.2961656495805638  3.6370101610875945  7.2940361710365353   T   T   T
  7.2952232776845705  3.6639756147435953 10.9659827045178808   T   T   T
  7.2902197839999996  7.2902197839999996  0.0000000000000000   F   F   F
  7.2902197839999996  7.2902197839999996  3.6451098919999998   F   F   F
  7.2945661963049560  7.2899102399752262  7.2948225746875881   T   T   T
  7.2970038654604927  7.2925022281780159 10.9260359981876221   T   T   T
  7.2902197839999996 10.9353296760000003  0.0000000000000000   F   F   F
  7.2902197839999996 10.9353296760000003  3.6451098919999998   F   F   F
  7.2988881575285616 10.9455455454564401  7.2905371270672594   T   T   T
  7.3037548364132210 10.9405214958858519 10.9560348900445295   T   T   T
 10.9353296760000003  0.0000000000000000  0.0000000000000000   F   F   F
 10.9353296760000003  0.0000000000000000  3.6451098919999998   F   F   F
 10.9234577366803336  0.0021474229907590  7.2907091900402188   T   T   T
 10.9238175895235194 -0.0025948241400115 10.9602943678462719   T   T   T
 10.9353296760000003  3.6451098919999998  0.0000000000000000   F   F   F
 10.9353296760000003  3.6451098919999998  3.6451098919999998   F   F   F
 10.9236417884850052  3.6380927441742452  7.2880759916105164   T   T   T
 10.9315844988595412  3.6410231442200534 10.9525511017130608   T   T   T
 10.9353296760000003  7.2902197839999996  0.0000000000000000   F   F   F
 10.9353296760000003  7.2902197839999996  3.6451098919999998   F   F   F
 10.9251382137761066  7.2862287635821952  7.2967794777182293   T   T   T
 10.9045070481435413  7.2895751846522030 10.9687369533401906   T   T   T
 10.9353296760000003 10.9353296760000003  0.0000000000000000   F   F   F
 10.9353296760000003 10.9353296760000003  3.6451098919999998   F   F   F
 10.9293598897443491 10.9386266486640196  7.2971406500446516   T   T   T
 10.9239266847433232 10.9367129709305697 10.9565669234978227   T   T   T
  0.0000000000000000  1.8225549459999999  1.8225549459999999   F   F   F
 -0.0034174452111898  1.8156568715279768  5.4718081136425250   T   T   T
 -0.0502883570506106  1.7712761734153142  9.0763659595718398   T   T   T
 -0.0141214939703517  1.8102653128140247 12.7504133374310218   T   T   T
  0.0000000000000000  5.4676648380000001  1.8225549459999999   F   F   F
 -0.0101440216052902  5.4662452498088525  5.4660605034968892   T   T   T
 -0.0322627953572494  5.4618011798966668  9.1237579412599192   T   T   T
 -0.0138407873285344  5.4866236046361738 12.7529857042347885   T   T   T
  0.0000000000000000  9.1127747299999999  1.8225549459999999   F   F   F
 -0.0669362503717491  9.0402148469893309  5.4345891929626422   T   T   T
 -0.0326464453277678  9.1124508607933752  9.1549551447623223   T   T   T
 -0.0107334749873893  9.1155354619659157 12.7318865106771586   T   T   T
  0.0000000000000000 12.7578846220000006  1.8225549459999999   F   F   F
 -0.0107582253513672 12.7740940377520289  5.4730134362423630   T   T   T
 -0.0112648531954131 12.7863560642028276  9.1409884189680977   T   T   T
 -0.0120945730992281 12.7527336951665227 12.7357034712059356   T   T   T
  3.6451098919999998  1.8225549459999999  1.8225549459999999   F   F   F
  3.6507455824389554  1.8212287522969506  5.4690584361960015   T   T   T
  3.6647556993967707  1.8163327627659622  9.1154907322968448   T   T   T
  3.6784863927862812  1.8174654186395207 12.7430131175219614   T   T   T
  3.6451098919999998  5.4676648380000001  1.8225549459999999   F   F   F
  3.6576073145953254  5.4466888343288522  5.4558545766268463   T   T   T
  3.6732378406947976  5.4597431366179956  9.1324466014256327   T   T   T
  3.6646251562490342  5.4638255594601235 12.7314980214056632   T   T   T
  3.6451098919999998  9.1127747299999999  1.8225549459999999   F   F   F
  3.6782700649254605  9.1136009978570431  5.4538776432168987   T   T   T
  3.7028929238415800  9.1869732204672001  9.1795456836705203   T   T   T
  3.6504204430123508  9.1232380103286150 12.7290804972813678   T   T   T
  3.6451098919999998 12.7578846220000006  1.8225549459999999   F   F   F
  3.6686934815836967 12.7808899813803141  5.4743799760276302   T   T   T
  3.6613522887384193 12.7597877473090566  9.1300216528892619   T   T   T
  3.6597974012865193 12.7591095347812065 12.7397561607387004   T   T   T
  7.2902197839999996  1.8225549459999999  1.8225549459999999   F   F   F
  7.2977193284953632  1.8211464275956517  5.4684566735023132   T   T   T
  7.2900200635009433  1.8241135775502382  9.1243537405079493   T   T   T
  7.2884924996844882  1.8257076950957669 12.7167176737815826   T   T   T
  7.2902197839999996  5.4676648380000001  1.8225549459999999   F   F   F
  7.3017345807544594  5.4610990132329373  5.4684091046504788   T   T   T
  7.2929015791927858  5.4563194694879398  9.1187076505084317   T   T   T
  7.3208175249272101  5.4876011997538150 12.7992397447151163   T   T   T
  7.2902197839999996  9.1127747299999999  1.8225549459999999   F   F   F
  7.2969167665167136  9.1165788396157250  5.4688422589212262   T   T   T
  7.2939553588938502  9.1248042604006336  9.1163231014018535   T   T   T
  7.2888065798276847  9.1316732129138156 12.7130059548705283   T   T   T
  7.2902197839999996 12.7578846220000006  1.8225549459999999   F   F   F
  7.2955422846943589 12.7611038601483830  5.4681634439545626   T   T   T
  7.3034858828371947 12.7628775685635194  9.1217290027989613   T   T   T
  7.3017338269769692 12.7570753393738610 12.7285187201777905   T   T   T
 10.9353296760000003  1.8225549459999999  1.8225549459999999   F   F   F
 10.9287357402257967  1.8226890245278560  5.4677687932162087   T   T   T
 10.9312977357533736  1.8181501564729146  9.1199839078596270   T   T   T
 10.9225873128145281  1.8127792043138644 12.7318899598767690   T   T   T
 10.9353296760000003  5.4676648380000001  1.8225549459999999   F   F   F
 10.9225877422686768  5.4625849069129950  5.4704122324875986   T   T   T
 10.9328036095844272  5.4700697271423451  9.1158991459423184   T   T   T
 10.9338152722415263  5.4614958923051464 12.7129377035997546   T   T   T
 10.9353296760000003  9.1127747299999999  1.8225549459999999   F   F   F
 10.9330416837273106  9.1119404681283207  5.4730906115671187   T   T   T
 10.9262147685123256  9.1150538157712013  9.1277266593989932   T   T   T
 10.9159759695873717  9.1129321950085469 12.7225964738516808   T   T   T
 10.9353296760000003 12.7578846220000006  1.8225549459999999   F   F   F
 10.9256767099834242 12.7631253994581133  5.4686874740074130   T   T   T
 10.9210251053260077 12.7639941620657442  9.1236511279684471   T   T   T
 10.9248143594275255 12.7571513429445247 12.7309925277368396   T   T   T
  1.8225549459999999  0.0000000000000000  1.8225549459999999   F   F   F
  1.8254154399460929 -0.0045195291511816  5.4703188990809366   T   T   T
  1.8355317780395075 -0.0126759638154353  9.1237902607893098   T   T   T
  1.8251074109209564 -0.0185754437715937 12.7513855220123862   T   T   T
  1.8225549459999999  3.6451098919999998  1.8225549459999999   F   F   F
  1.8209980684395501  3.6407455067695182  5.4682150277532235   T   T   T
  1.8721882430943328  3.6970765664487137  9.0751570718151822   T   T   T
  1.8335249727088156  3.6473840235617638 12.7510417405022540   T   T   T
  1.8225549459999999  7.2902197839999996  1.8225549459999999   F   F   F
  1.8245246698763742  7.2625169619991272  5.4522628572808376   T   T   T
  1.7512498392159830  7.2263050125793873  9.1811138610170424   T   T   T
  1.8292007589724888  7.2976420247551070 12.7374660875546581   T   T   T
  1.8225549459999999 10.9353296760000003  1.8225549459999999   F   F   F
  1.8990111958854230 10.9989193366678499  5.4347369416524867   T   T   T
  1.8209453540941836 10.9724849685633306  9.1564931145031263   T   T   T
  1.8186837825132360 10.9466815969538818 12.7332877669383659   T   T   T
  5.4676648380000001  0.0000000000000000  1.8225549459999999   F   F   F
  5.4781391357619995  0.0064866156478014  5.4695832184013069   T   T   T
  5.4784321275899810 -0.0034363719685222  9.1221026001641086   T   T   T
  5.4848438226681528 -0.0049301349811124 12.7314934771113997   T   T   T
  5.4676648380000001  3.6451098919999998  1.8225549459999999   F   F   F
  5.4791208138920089  3.6369549265943983  5.4673670977532147   T   T   T
  5.4746755357892036  3.6384025962894935  9.1225801719792692   T   T   T
  5.4898116534673678  3.6511589111427285 12.7239047198233184   T   T   T
  5.4676648380000001  7.2902197839999996  1.8225549459999999   F   F   F
  5.4962919115830502  7.2842765632535187  5.4578102038705918   T   T   T
  5.4836927782006182  7.2861819560712417  9.1207773865217643   T   T   T
  5.4663553381354655  7.3034515235081603 12.7194654030068826   T   T   T
  5.4676648380000001 10.9353296760000003  1.8225549459999999   F   F   F
  5.4758141562488669 10.9439067803413330  5.4699068371185628   T   T   T
  5.4943567084308427 10.9539523068145144  9.1275036986099156   T   T   T
  5.4811235045794149 10.9413146034723123 12.7339486947140568   T   T   T
  9.1127747299999999  0.0000000000000000  1.8225549459999999   F   F   F
  9.1091395119504543  0.0012291155358295  5.4675937050130576   T   T   T
  9.1115420491413506  0.0050354301785666  9.1209794052146620   T   T   T
  9.1049588340112848  0.0016418214940620 12.7256684171763226   T   T   T
  9.1127747299999999  3.6451098919999998  1.8225549459999999   F   F   F
  9.1102165843370582  3.6408879438254411  5.4694705462074458   T   T   T
  9.1145591994241109  3.6327754930957918  9.1155373443422754   T   T   T
  9.1246498945380310  3.6265547338037174 12.7044839979175634   T   T   T
  9.1127747299999999  7.2902197839999996  1.8225549459999999   F   F   F
  9.1116883637331387  7.2909976115525206  5.4730309151902556   T   T   T
  9.1091470722586365  7.2954172586053021  9.1161291244233258   T   T   T
  9.0896968815925359  7.2705082335934499 12.8007848739751839   T   T   T
  9.1127747299999999 10.9353296760000003  1.8225549459999999   F   F   F
  9.1168460869340873 10.9363391436113986  5.4709052692586928   T   T   T
  9.1129468041402131 10.9322068055959694  9.1220531503269093   T   T   T
  9.1155429750234287 10.9342784826542836 12.7236321869692279   T   T   T
 12.7578846220000006  0.0000000000000000  1.8225549459999999   F   F   F
 12.7459329584169527  0.0027025497672750  5.4681871930609534   T   T   T
 12.7347697142079266 -0.0043554484624762  9.1265779387130799   T   T   T
 12.7439395483351472 -0.0061064329325112 12.7319165609556286   T   T   T
 12.7578846220000006  3.6451098919999998  1.8225549459999999   F   F   F
 12.7485305629014150  3.6411113148665795  5.4653241973967290   T   T   T
 12.7321567146202170  3.6425218571574329  9.1169754830455858   T   T   T
 12.7235355324956370  3.6393066630144024 12.7467935165818762   T   T   T
 12.7578846220000006  7.2902197839999996  1.8225549459999999   F   F   F
 12.7294360743495982  7.2724798008854368  5.4739254535965927   T   T   T
 12.7400326603508436  7.2900004362210096  9.1320254894776287   T   T   T
 12.7326493988495191  7.3001805112926430 12.7312344926774372   T   T   T
 12.7578846220000006 10.9353296760000003  1.8225549459999999   F   F   F
 12.7368410667354919 10.9431652442071865  5.4737147578677385   T   T   T
 12.7315968865171207 10.9463493959381779  9.1398228024175410   T   T   T
 12.7453331966666248 10.9341891322075639 12.7259823955079305   T   T   T
  1.8225549459999999  1.8225549459999999  0.0000000000000000   F   F   F
  1.8225549459999999  1.8225549459999999  3.6451098919999998   F   F   F
  1.8299398522956152  1.8145314869411884  7.2796610013601155   T   T   T
  1.8774643166577054  1.7696003930945590 11.0291022970781150   T   T   T
  1.8225549459999999  5.4676648380000001  0.0000000000000000   F   F   F
  1.8225549459999999  5.4676648380000001  3.6451098919999998   F   F   F
  1.8138801660183543  5.4561096150714263  7.2762340572386384   T   T   T
  1.8297347319366830  5.4722859462614384 10.9886223742872833   T   T   T
  1.8225549459999999  9.1127747299999999  0.0000000000000000   F   F   F
  1.8225549459999999  9.1127747299999999  3.6451098919999998   F   F   F
  1.8229581759125908  9.1132870069212135  7.3058751972378069   T   T   T
  1.8143214576445159  9.1209772312653605 10.9805242226584348   T   T   T
  1.8225549459999999 12.7578846220000006  0.0000000000000000   F   F   F
  1.8225549459999999 12.7578846220000006  3.6451098919999998   F   F   F
  1.8334519908259301 12.7792329419772219  7.3051574727046855   T   T   T
  1.8244924566555558 12.7720851017563035 10.9751488015505956   T   T   T
  5.4676648380000001  1.8225549459999999  0.0000000000000000   F   F   F
  5.4676648380000001  1.8225549459999999  3.6451098919999998   F   F   F
  5.4770246101823190  1.8219274192693307  7.2900648805983197   T   T   T
  5.4724681963704462  1.8190865393231705 10.9546388870117504   T   T   T
  5.4676648380000001  5.4676648380000001  0.0000000000000000   F   F   F
  5.4676648380000001  5.4676648380000001  3.6451098919999998   F   F   F
  5.4920258333350285  5.4508410907158211  7.2900952352806332   T   T   T
  5.4999867753307701  5.4735320675216483 10.9724642260395537   T   T   T
  5.4676648380000001  9.1127747299999999  0.0000000000000000   F   F   F
  5.4676648380000001  9.1127747299999999  3.6451098919999998   F   F   F
  5.4938659658658135  9.1238983050262235  7.2879015189630758   T   T   T
  5.4829868436976099  9.1171520334139480 10.9659736989596652   T   T   T
  5.4676648380000001 12.7578846220000006  0.0000000000000000   F   F   F
  5.4676648380000001 12.7578846220000006  3.6451098919999998   F   F   F
  5.4887975147302175 12.7725967507193623  7.2952655557869583   T   T   T
  5.4806998384817884 12.7620470904958978 10.9636248012799999   T   T   T
  9.1127747299999999  1.8225549459999999  0.0000000000000000   F   F   F
  9.1127747299999999  1.8225549459999999  3.6451098919999998   F   F   F
  9.1117382649974505  1.8191855338675473  7.2923148305059335   T   T   T
  9.1091351786929824  1.8205457735659119 10.9489487668474634   T   T   T
  9.1127747299999999  5.4676648380000001  0.0000000000000000   F   F   F
  9.1127747299999999  5.4676648380000001  3.6451098919999998   F   F   F
  9.1073145512297113  5.4647651924248901  7.2982345406905305   T   T   T
  9.1143531261184911  5.4635681362494104 10.9183023959932530   T   T   T
  9.1127747299999999  9.1127747299999999  0.0000000000000000   F   F   F
  9.1127747299999999  9.1127747299999999  3.6451098919999998   F   F   F
  9.1126682260087239  9.1155113495605296  7.2938713982925245   T   T   T
  9.1061285333983957  9.0927442626386075 10.9669717618052296   T   T   T
  9.1127747299999999 12.7578846220000006  0.0000000000000000   F   F   F
  9.1127747299999999 12.7578846220000006  3.6451098919999998   F   F   F
  9.1130862660492884 12.7601425175756411  7.2920432970956499   T   T   T
  9.1115635822167498 12.7612551291319285 10.9578763069070604   T   T   T
 12.7578846220000006  1.8225549459999999  0.0000000000000000   F   F   F
 12.7578846220000006  1.8225549459999999  3.6451098919999998   F   F   F
 12.7415516759545824  1.8186439896245532  7.2825074665520289   T   T   T
 12.7348319753814945  1.8133771545315822 10.9700568080006065   T   T   T
 12.7578846220000006  5.4676648380000001  0.0000000000000000   F   F   F
 12.7578846220000006  5.4676648380000001  3.6451098919999998   F   F   F
 12.7383339709809711  5.4535277408969547  7.2912687070338595   T   T   T
 12.7360344120149467  5.4767697228014427 10.9633057767782667   T   T   T
 12.7578846220000006  9.1127747299999999  0.0000000000000000   F   F   F
 12.7578846220000006  9.1127747299999999  3.6451098919999998   F   F   F
 12.7304134971053493  9.1081790788243708  7.3088466992721761   T   T   T
 12.7411673635255376  9.1137256829504860 10.9663198096460750   T   T   T
 12.7578846220000006 12.7578846220000006  0.0000000000000000   F   F   F
 12.7578846220000006 12.7578846220000006  3.6451098919999998   F   F   F
 12.7317789629442828 12.7746678922282140  7.2951583496199133   T   T   T
 12.7424866858304799 12.7605931649314410 10.9648271877759242   T   T   T
  2.7819586115733657  8.1497035763632724  8.2441891890582149   T   T   T
  0.9106038582229672  2.7393634916205909 10.0622826790259747   T   T   T
  0.8652395973440715 10.0705247638215507  6.3591118268972782   T   T   T
  1.8225549459500000  1.8225549459500000 13.8715121222882054   T   T   T
