Cr Co Ni  H 
 1.0000000000000000
    14.1120004653999995    0.0000000000000000    0.0000000000000000
     0.0000000000000000   14.1120004653999995    0.0000000000000000
     0.0000000000000000    0.0000000000000000   32.0000000000000000
 Cr  Co  Ni  H  
  86  85  85   4
Selective dynamics
Cartesian
  5.2920001750000001  1.7640000579999999  0.0000000000000000   F   F   F
  3.5280001159999999 12.3480004070000007  1.7640000579999999   F   F   F
  3.1382965611716083  4.5806955667494096 14.2336104722575811   T   T   T
  0.0000000000000000  3.5280001159999999  0.0000000000000000   F   F   F
  1.7640000579999999  3.5280001159999999  1.7640000579999999   F   F   F
  5.0835524495975584  7.4835254161140190  9.8011149021474395   T   T   T
 12.8398931830592673  5.5978629053236055 12.3036089640346127   T   T   T
  8.4339824125382172  7.7752536754790889 11.6736520906617294   T   T   T
 10.5840003490000001 10.5840003490000001  0.0000000000000000   F   F   F
  3.0753767272010735 -0.4286586423134162  7.7731712247795626   T   T   T
  7.0560002329999998 10.5840003490000001  3.5280001159999999   F   F   F
 10.5840003490000001  8.8200002909999995  1.7640000579999999   F   F   F
  3.0823856906956939  9.2815209795503097  9.2686943672941169   T   T   T
 -0.4567866051694209 10.0562235741146235 11.9426607767393431   T   T   T
  3.5280001159999999  7.0560002329999998  3.5280001159999999   F   F   F
 12.3480004070000007  7.0560002329999998  1.7640000579999999   F   F   F
  8.9160944408137990  1.9673462375205439  7.4541390697244214   T   T   T
  4.6025499029106420  1.3489769970667063 11.7166245854160511   T   T   T
 10.5840003490000001 10.5840003490000001  3.5280001159999999   F   F   F
 -0.1044828915470086  0.0167568640757063  8.0657169618472491   T   T   T
  7.2477473077706867  8.8565475431889418 14.9683650137906277   T   T   T
  5.1756789404940537 -0.4418116761856499 14.2302052090440672   T   T   T
 10.5840003490000001  3.5280001159999999  3.5280001159999999   F   F   F
 -0.7759532978089366 11.8143535992547282  9.6437693206573609   T   T   T
  3.5280001159999999  5.2920001750000001  1.7640000579999999   F   F   F
 12.3480004070000007  5.2920001750000001  0.0000000000000000   F   F   F
  0.0000000000000000  0.0000000000000000  0.0000000000000000   F   F   F
  1.9962862669104471  8.5656795539992352 11.7000169020234619   T   T   T
 10.5840003490000001  3.5280001159999999  0.0000000000000000   F   F   F
  3.6960089032406644 10.8004229087989660 11.9538443331107622   T   T   T
 12.3480004070000007 10.5840003490000001  5.2920001750000001   F   F   F
  7.1299098796254885  1.4564929904736188  9.6654334361787679   T   T   T
  5.2920001750000001 10.5840003490000001  1.7640000579999999   F   F   F
  1.7640000579999999  5.2920001750000001  0.0000000000000000   F   F   F
  7.0560002329999998  1.7640000579999999  5.2920001750000001   F   F   F
  1.7146605415677796  1.9311181758306344  7.4144819693975874   T   T   T
  1.7640000579999999  0.0000000000000000  5.2920001750000001   F   F   F
  7.2720707045045518  6.9484566096577050  7.3176813058003196   T   T   T
 12.3480004070000007  1.7640000579999999  3.5280001159999999   F   F   F
 12.3480004070000007  8.8200002909999995  3.5280001159999999   F   F   F
  7.0560002329999998  1.7640000579999999  1.7640000579999999   F   F   F
  5.2920001750000001 10.5840003490000001  5.2920001750000001   F   F   F
  5.8591457481932796  8.8490226404327323 12.3723852719231093   T   T   T
 10.5840003490000001  1.7640000579999999  1.7640000579999999   F   F   F
  7.0174339764749130  2.9136676948817057 12.1987218414175604   T   T   T
  6.5415538981436621  5.0729178468084095 10.1727132884077882   T   T   T
  5.6576478384526716 10.4132254573674672  9.6272061753656271   T   T   T
  8.8200002909999995  5.2920001750000001  3.5280001159999999   F   F   F
  1.7640000579999999  0.0000000000000000  1.7640000579999999   F   F   F
 10.0458007896712260 11.1278555281133951 14.6220879971498903   T   T   T
  6.7070885360157906  3.6891392863005046  7.6911972093761154   T   T   T
  9.0716628146966567  8.9849501082807617  7.2890016314556076   T   T   T
  6.4705369790135299  4.4259930235442315 14.6718118961477550   T   T   T
 10.5840003490000001  0.0000000000000000  0.0000000000000000   F   F   F
  1.3350914047939486 11.6531080189113236  7.8058020812578253   T   T   T
  2.5296634776621763  3.2490248361175782 11.6037048744971436   T   T   T
  3.5280001159999999  8.8200002909999995  1.7640000579999999   F   F   F
  5.2920001750000001  5.2920001750000001  3.5280001159999999   F   F   F
  0.0000000000000000  7.0560002329999998  3.5280001159999999   F   F   F
  4.9785247726473862  1.5427218343089206  7.5654565136428715   T   T   T
  9.2630713131531071  3.3836881130282297 14.2739688037597467   T   T   T
 -0.5293682881432675 -0.7863157250338781 11.9965527807167884   T   T   T
  8.6197228996713964 10.7793872664663937  9.8394795557373769   T   T   T
  8.8200002909999995  0.0000000000000000  1.7640000579999999   F   F   F
 10.5840003490000001 12.3480004070000007  1.7640000579999999   F   F   F
  3.5280001159999999  3.5280001159999999  0.0000000000000000   F   F   F
  0.0000000000000000  5.2920001750000001  5.2920001750000001   F   F   F
  5.2920001750000001  3.5280001159999999  5.2920001750000001   F   F   F
  0.0000000000000000  7.0560002329999998  0.0000000000000000   F   F   F
  0.0000000000000000  0.0000000000000000  3.5280001159999999   F   F   F
 10.8866560234750001 10.8492616117486875  8.0671524830895258   T   T   T
 12.3480004070000007  0.0000000000000000  5.2920001750000001   F   F   F
  5.2920001750000001  8.8200002909999995  0.0000000000000000   F   F   F
  5.0162819028078731  6.9244819198509289 14.7320932168990577   T   T   T
 12.3480004070000007  3.5280001159999999  1.7640000579999999   F   F   F
 10.9856883946642370  3.6732447757058670 11.4874978742118081   T   T   T
  8.8200002909999995  0.0000000000000000  5.2920001750000001   F   F   F
  4.9207687700232379  5.7438750825979783  7.6504735001474238   T   T   T
  8.8200002909999995  8.8200002909999995  0.0000000000000000   F   F   F
  5.2920001750000001  0.0000000000000000  5.2920001750000001   F   F   F
  3.5280001159999999  5.2920001750000001  5.2920001750000001   F   F   F
  0.0000000000000000 12.3480004070000007  1.7640000579999999   F   F   F
  5.4597426322608200 12.3822956418397681  7.5304111583548261   T   T   T
 10.7160196240386014 -0.1990063577712723  7.7413982358317712   T   T   T
  9.3097563651979289  1.4237300127394639 11.8668575104558656   T   T   T
  3.5280001159999999  0.0000000000000000  0.0000000000000000   F   F   F
  1.4350924841477670 11.8356141455146950 12.6517656605681506   T   T   T
  7.5672821975249978 12.4098160773308539 13.9669498390501854   T   T   T
  2.6916842316917324  1.7423831654833615 14.0589584295440115   T   T   T
  5.1990836705988999  8.6907004221843387  7.3288348563909844   T   T   T
  0.0000000000000000  3.5280001159999999  3.5280001159999999   F   F   F
  7.0560002329999998  0.0000000000000000  3.5280001159999999   F   F   F
  7.0560002329999998 10.5840003490000001  0.0000000000000000   F   F   F
  7.0455577238514993 12.8098150846454342  9.7088479583676897   T   T   T
  1.7640000579999999 10.5840003490000001  5.2920001750000001   F   F   F
  8.7709197076862910  3.7062932141296612  9.6722166405731773   T   T   T
  3.8629121374062882  6.6560374719659672 12.1201685714853014   T   T   T
  8.8200002909999995  1.7640000579999999  3.5280001159999999   F   F   F
  5.2920001750000001  7.0560002329999998  5.2920001750000001   F   F   F
 10.5840003490000001  7.0560002329999998  3.5280001159999999   F   F   F
  1.9006627695583465  6.7909790981500482  9.4254379624991316   T   T   T
  3.5280001159999999  0.0000000000000000  3.5280001159999999   F   F   F
  3.5280001159999999 12.3480004070000007  5.2920001750000001   F   F   F
  3.5280001159999999  1.7640000579999999  1.7640000579999999   F   F   F
 10.3485831449257493  9.8807585494885029 11.6488989939645577   T   T   T
  0.9463425965298140 -0.4364675301514951 14.2781484723868779   T   T   T
  1.7640000579999999 12.3480004070000007  0.0000000000000000   F   F   F
  5.2920001750000001  7.0560002329999998  1.7640000579999999   F   F   F
  0.0000000000000000  1.7640000579999999  1.7640000579999999   F   F   F
  3.5280001159999999  7.0560002329999998  0.0000000000000000   F   F   F
 12.3480004070000007 12.3480004070000007  0.0000000000000000   F   F   F
  6.7402549695501968 11.3946651014160985 11.7899563742863602   T   T   T
  9.2292124735720620 -0.4157653277787070  9.9175361820452803   T   T   T
  1.8891804167527679 -0.6062487779473448 10.5420982470247342   T   T   T
  5.5248314930521012 10.9494094400674129 13.9488478691278353   T   T   T
 10.5840003490000001  5.2920001750000001  1.7640000579999999   F   F   F
 -0.5282356777032780  1.4961360728115132 14.2380551596914682   T   T   T
  1.5394549824522414  5.7799832860801823 11.9286227662736923   T   T   T
  9.1011137439927072 12.3213039032892180 12.0398060539872702   T   T   T
  1.5643381838480714  9.0364244485199006  7.0810791217937048   T   T   T
  7.0560002329999998 12.3480004070000007  5.2920001750000001   F   F   F
 12.2170913363884175 -0.5704206567041528 14.3840717598914587   T   T   T
  8.5959368604733548 12.1989142713557790  7.3361180560762040   T   T   T
  3.5280001159999999  3.5280001159999999  3.5280001159999999   F   F   F
  3.5280001159999999  8.8200002909999995  5.2920001750000001   F   F   F
  1.7640000579999999 12.3480004070000007  3.5280001159999999   F   F   F
  3.5643572709842064 10.6001122213093755  7.1392357215789231   T   T   T
  7.0560002329999998 12.3480004070000007  1.7640000579999999   F   F   F
  5.2920001750000001  8.8200002909999995  3.5280001159999999   F   F   F
  8.9051379287875889  4.8657083939391805  7.3104768054586264   T   T   T
 12.3259363252405869  5.5110104109270592  7.2226416142389658   T   T   T
 -0.3678178436284043 11.5285209736453265 14.2482309381629548   T   T   T
 11.9374104066046165  8.4615370274807695  7.2074335884558511   T   T   T
  6.9985562256118188 10.3561392244293664  7.3254564294453726   T   T   T
  1.7640000579999999  3.5280001159999999  5.2920001750000001   F   F   F
 12.6047175698048708 12.3416178981191234  7.1052373804864519   T   T   T
  3.6044915187032558  5.1622201398212235 10.0217244957719487   T   T   T
  0.0000000000000000 12.3480004070000007  5.2920001750000001   F   F   F
  5.2920001750000001 12.3480004070000007  0.0000000000000000   F   F   F
  0.0066537165306024  7.7907750463620973 13.3736195789259789   T   T   T
  2.2805800488235151  7.2046334434139512 13.9642044856051726   T   T   T
  3.5569342459882534  3.6805342837832149  7.5240906809152541   T   T   T
  3.1459812693954023  7.4101466725985716  7.3193017011052506   T   T   T
 10.5840003490000001 12.3480004070000007  5.2920001750000001   F   F   F
 10.0785266738588835  8.4038669152753620  9.6325884850050052   T   T   T
  4.8022775837676264  4.3898606799303987 12.0556572197707972   T   T   T
  3.7550963039600624  9.1633844300953964 14.0525840192026497   T   T   T
  8.6281809946155619  4.9968823118742227 11.9355245708962379   T   T   T
 12.2028659730920470  6.9449100469055463 14.5277413699829907   T   T   T
  8.8200002909999995 10.5840003490000001  1.7640000579999999   F   F   F
  8.8200002909999995  7.0560002329999998  1.7640000579999999   F   F   F
  0.0000000000000000  1.7640000579999999  5.2920001750000001   F   F   F
  1.3482765077178693  9.7261442991467355 14.0175620668254197   T   T   T
  7.0560002329999998  0.0000000000000000  0.0000000000000000   F   F   F
 12.3480004070000007  8.8200002909999995  0.0000000000000000   F   F   F
 10.4468386149308614  5.6857687280706575 13.4815571859891747   T   T   T
  5.2920001750000001  0.0000000000000000  1.7640000579999999   F   F   F
  0.0000000000000000  8.8200002909999995  5.2920001750000001   F   F   F
  0.3904555072976592  5.5787812962674304 14.3116070517548124   T   T   T
 10.5840003490000001  8.8200002909999995  5.2920001750000001   F   F   F
 12.3480004070000007  5.2920001750000001  3.5280001159999999   F   F   F
  0.6846465521971640  3.3820631450764207 13.4768296565763617   T   T   T
  0.0000000000000000  5.2920001750000001  1.7640000579999999   F   F   F
  0.0000000000000000  8.8200002909999995  1.7640000579999999   F   F   F
  5.2920001750000001 12.3480004070000007  3.5280001159999999   F   F   F
  5.2920001750000001  3.5280001159999999  1.7640000579999999   F   F   F
  7.1646083494000301 -0.1606943069682518 11.9687433361987310   T   T   T
  1.1006865341899197  1.1990456125665965 12.3117858566664751   T   T   T
 10.0644449468799060  8.2881253683604950 13.8049533637648327   T   T   T
  7.0560002329999998  7.0560002329999998  0.0000000000000000   F   F   F
 -0.0950060982485884  7.2793076744857563 10.8442706715026169   T   T   T
  8.8200002909999995  8.8200002909999995  3.5280001159999999   F   F   F
  7.4364441223985160  8.5664361417633508  9.2825454303995816   T   T   T
 10.5840003490000001  1.7640000579999999  5.2920001750000001   F   F   F
 10.5840003490000001  7.0560002329999998  0.0000000000000000   F   F   F
 11.7222802933038750 11.5742679498706860 12.8181787746046449   T   T   T
  5.2920001750000001  1.7640000579999999  3.5280001159999999   F   F   F
 10.5840003490000001  0.0000000000000000  3.5280001159999999   F   F   F
  0.0364071964678962  3.7516349952658574 11.1161411946432835   T   T   T
  8.8200002909999995 12.3480004070000007  0.0000000000000000   F   F   F
  0.4499835294408980  1.5602315672324818 10.0061709983178666   T   T   T
  7.0560002329999998  8.8200002909999995  1.7640000579999999   F   F   F
 12.1986894035205928  7.1004626232247405  9.2224683923955233   T   T   T
  1.6915596741084020  3.7801131212910128  9.2240705745369347   T   T   T
  4.9786743482699691 -0.0342448689471465  9.5119072455145339   T   T   T
 10.5840003490000001  5.2920001750000001  5.2920001750000001   F   F   F
  0.0000000000000000 10.5840003490000001  3.5280001159999999   F   F   F
 12.5636811376240125  3.0904685055090049  9.2988628211835085   T   T   T
  3.5804308791078703 11.9343392944856408  9.5056992276098473   T   T   T
 12.3480004070000007 10.5840003490000001  1.7640000579999999   F   F   F
 10.8683213819690856  4.9777849292706611  9.1609516162631053   T   T   T
  8.8200002909999995  5.2920001750000001  0.0000000000000000   F   F   F
  7.0560002329999998  3.5280001159999999  3.5280001159999999   F   F   F
 11.1052323358070861 -0.2782780640224646 12.1162451315672062   T   T   T
  3.0462485283711929 11.6887105778686173 14.4744722744205472   T   T   T
  7.0560002329999998  5.2920001750000001  1.7640000579999999   F   F   F
  1.7640000579999999  8.8200002909999995  3.5280001159999999   F   F   F
 10.8684877486988452  3.5425683856171730  7.2123688478308363   T   T   T
  4.9376016551682618 12.9036418518858369 11.5418986226147542   T   T   T
  0.5011850408641690  8.9878680444895132  9.3245585592103275   T   T   T
 12.2924309613634044  3.8768108874653437 14.1969296038019657   T   T   T
  1.7640000579999999  7.0560002329999998  5.2920001750000001   F   F   F
  5.2920001750000001  5.2920001750000001  0.0000000000000000   F   F   F
  8.3012989666434578 10.0742535289185113 12.9940870576225311   T   T   T
  7.0560002329999998  3.5280001159999999  0.0000000000000000   F   F   F
 12.3480004070000007  0.0000000000000000  1.7640000579999999   F   F   F
 10.4196341360860778  1.8458583800239532  9.5098851349788074   T   T   T
  8.8200002909999995 10.5840003490000001  5.2920001750000001   F   F   F
 10.2752668163478003  6.7846084043812072  7.3908975264485939   T   T   T
  1.8034277268640260  5.3510561757724346  7.2735390267260636   T   T   T
 12.3480004070000007 12.3480004070000007  3.5280001159999999   F   F   F
  7.1867458330950740  0.0707747291166324  7.3941685941911919   T   T   T
 12.1583176056515612  0.1620392464784624  9.9386850849591060   T   T   T
 12.3480004070000007  1.7640000579999999  0.0000000000000000   F   F   F
  8.3022065569045811  6.4823272972393235 14.2371015677825365   T   T   T
 -0.1788744118586719  5.3576612396811116  9.1989065088970090   T   T   T
  7.4843824870335594  1.1005827988969961 14.0508672137979165   T   T   T
 10.5677093591967015  6.3959035323691023 11.1102613860097925   T   T   T
  8.8200002909999995 12.3480004070000007  3.5280001159999999   F   F   F
  7.0560002329999998  7.0560002329999998  3.5280001159999999   F   F   F
  7.0560002329999998  8.8200002909999995  5.2920001750000001   F   F   F
  8.8200002909999995  1.7640000579999999  0.0000000000000000   F   F   F
 11.9466977697883454  8.0889218111893548 12.0922634784967311   T   T   T
  1.7640000579999999  1.7640000579999999  3.5280001159999999   F   F   F
 11.1773033404703828  1.6817281515254552 13.7657089388518905   T   T   T
  1.7640000579999999  8.8200002909999995  0.0000000000000000   F   F   F
  2.9652102883207618 -0.4166325610340268 12.8291740484137424   T   T   T
  0.0000000000000000 10.5840003490000001  0.0000000000000000   F   F   F
  1.7640000579999999  5.2920001750000001  3.5280001159999999   F   F   F
  1.7640000579999999 10.5840003490000001  1.7640000579999999   F   F   F
 12.4201669774447030  1.7465185781809263  7.1430107258082858   T   T   T
  3.5280001159999999 10.5840003490000001  3.5280001159999999   F   F   F
 12.7906839664935230  1.7709645615374132 11.8420065469238640   T   T   T
  4.9012629891042998  3.1223308447642606  9.6037418264409418   T   T   T
  2.9783974584548196  1.4850776725412889  9.6095838434001237   T   T   T
 12.3480004070000007  3.5280001159999999  5.2920001750000001   F   F   F
 10.9453597758940866 11.9743923942597821 10.4128955484223376   T   T   T
 -0.1351713607239281  3.6605582719223868  7.2632445922451030   T   T   T
  5.1492035599549686  2.2091656318758104 14.2867051291061884   T   T   T
  1.5054218337724845 10.9727192323862006 10.4153718049460693   T   T   T
  0.0211740528257090  7.1871748720533200  7.3171923682070688   T   T   T
  8.7044612407868573  6.3086418067645509  9.4126716009589781   T   T   T
  7.0560002329999998  5.2920001750000001  5.2920001750000001   F   F   F
  8.8200002909999995  3.5280001159999999  5.2920001750000001   F   F   F
  1.7640000579999999  7.0560002329999998  1.7640000579999999   F   F   F
  9.5750535437215927 -0.2263754623000188 14.1115536183367638   T   T   T
 -0.6006481859015295 10.1593487612277880  7.5035053776896428   T   T   T
 12.3597884893878049  9.4570650313467262 14.2224311047308856   T   T   T
  8.8200002909999995  3.5280001159999999  1.7640000579999999   F   F   F
 12.2088534425144406  9.4890392699463089  9.8709880377557351   T   T   T
 12.3480004070000007  7.0560002329999998  5.2920001750000001   F   F   F
  6.4923015870485372  6.1443021299259586 12.6174253478379583   T   T   T
  3.5280001159999999 10.5840003490000001  0.0000000000000000   F   F   F
  1.7640000579999999  1.7640000579999999  0.0000000000000000   F   F   F
  8.8200002909999995  7.0560002329999998  5.2920001750000001   F   F   F
  3.5280001159999999  1.7640000579999999  5.2920001750000001   F   F   F
  5.1795357775464081  2.8798898066751426 12.7401863355655287   T   T   T
 13.6519892152859832  0.0432557634927344 15.2676347808570672   T   T   T
 13.8682574846158708  3.9046786236047395 14.8909248242441841   T   T   T
  5.5189009392303863  7.1485511253755085 11.6361792401645747   T   T   T
