Cr Co Ni  H 
 1.0000000000000000
    14.1120004653999995    0.0000000000000000    0.0000000000000000
     0.0000000000000000   14.1120004653999995    0.0000000000000000
     0.0000000000000000    0.0000000000000000   32.0000000000000000
 Cr  Co  Ni  H  
  85  86  85   4
Selective dynamics
Cartesian
 10.3210791458114191  3.4110263120042057  7.6229539475956001   T   T   T
  8.8200002909999995  3.5280001159999999  5.2920001750000001   F   F   F
 10.5840003490000001  5.2920001750000001  5.2920001750000001   F   F   F
  0.0000000000000000  7.0560002329999998  0.0000000000000000   F   F   F
  8.6524181123382498  5.7343134269137748  7.5736062468182084   T   T   T
 12.4669756028961149  1.9256596964071850  7.4638409028384540   T   T   T
  5.2920001750000001  1.7640000579999999  0.0000000000000000   F   F   F
  4.0896547982816882  3.3369517370042492 11.3987075162451159   T   T   T
  5.2920001750000001  8.8200002909999995  0.0000000000000000   F   F   F
 10.6658238684468287  1.9143038768408380 14.3223395355283465   T   T   T
  6.8430658396460693  5.7250639805185051  9.7968856450337256   T   T   T
 10.6924841710937564  5.3501157232227072  9.6110636020926545   T   T   T
  8.8200002909999995 12.3480004070000007  3.5280001159999999   F   F   F
  6.9447218324250262  3.3984381671521171 11.8675523319964000   T   T   T
  8.8200002909999995 10.5840003490000001  1.7640000579999999   F   F   F
  8.4576346125077251  1.4265096429221489  7.7258414866412464   T   T   T
  3.5280001159999999  7.0560002329999998  0.0000000000000000   F   F   F
  8.8200002909999995  5.2920001750000001  3.5280001159999999   F   F   F
  0.2012584134118601  1.9938363418674869  9.4791419030008175   T   T   T
 10.4442685752729396 10.5229399717506080  7.3441683083558544   T   T   T
  7.0560002329999998  7.0560002329999998  3.5280001159999999   F   F   F
  7.0560002329999998  0.0000000000000000  0.0000000000000000   F   F   F
  3.5280001159999999  1.7640000579999999  5.2920001750000001   F   F   F
  4.8064403507699600 -0.2225371000562480 14.3110632204674904   T   T   T
 10.9887179782839723  7.3040713050893009  7.5654695052127936   T   T   T
 10.5840003490000001  7.0560002329999998  3.5280001159999999   F   F   F
 12.3480004070000007 10.5840003490000001  5.2920001750000001   F   F   F
 -0.3891754630336387  5.6969912177085336 15.0982236118537863   T   T   T
  6.8353957153719316 -0.5126768582108668 11.9581413453964309   T   T   T
 12.3480004070000007 12.3480004070000007  3.5280001159999999   F   F   F
 12.3480004070000007  1.7640000579999999  0.0000000000000000   F   F   F
  5.2920001750000001  7.0560002329999998  5.2920001750000001   F   F   F
  7.0560002329999998  1.7640000579999999  5.2920001750000001   F   F   F
  5.2920001750000001  1.7640000579999999  3.5280001159999999   F   F   F
 12.6367661942233571 12.4755428060382521 11.3947341933098265   T   T   T
  3.5280001159999999  8.8200002909999995  1.7640000579999999   F   F   F
  8.8200002909999995  8.8200002909999995  3.5280001159999999   F   F   F
 10.5840003490000001  0.0000000000000000  0.0000000000000000   F   F   F
  5.2920001750000001  5.2920001750000001  0.0000000000000000   F   F   F
  8.6030981742052326 -0.6064911713605359  9.6542531771588500   T   T   T
  7.0560002329999998  1.7640000579999999  1.7640000579999999   F   F   F
  3.5280001159999999 10.5840003490000001  3.5280001159999999   F   F   F
  7.3787164192119663  1.3705397759108686 14.3622432578579495   T   T   T
 12.3480004070000007  0.0000000000000000  5.2920001750000001   F   F   F
  3.5280001159999999  3.5280001159999999  3.5280001159999999   F   F   F
  7.0560002329999998  5.2920001750000001  5.2920001750000001   F   F   F
  7.0560002329999998 10.5840003490000001  3.5280001159999999   F   F   F
  8.8200002909999995  0.0000000000000000  5.2920001750000001   F   F   F
  8.8200002909999995  3.5280001159999999  1.7640000579999999   F   F   F
  3.5568165783579961 12.2174987642453310  9.5850056622206861   T   T   T
  8.5420691378572169  3.4542008634537678  9.6747333440420000   T   T   T
  3.8813913036020438  5.4667389199262617  9.6879592809353774   T   T   T
  5.2920001750000001  5.2920001750000001  3.5280001159999999   F   F   F
  1.7640000579999999  7.0560002329999998  5.2920001750000001   F   F   F
  7.1846529097304277  5.8264939021199398 14.0856377987752470   T   T   T
  3.5280001159999999  5.2920001750000001  5.2920001750000001   F   F   F
  0.1429885232389144 -0.2320287370753446  7.5341287546149829   T   T   T
  0.0000000000000000  0.0000000000000000  0.0000000000000000   F   F   F
 -0.3494906540663414  1.7164323901715770 14.0707371563153885   T   T   T
  7.2983920806877380 12.1372772048730209 14.4490847950196120   T   T   T
  8.9178898051631013  5.7176822279648416 11.8780333680728525   T   T   T
  1.7640000579999999  8.8200002909999995  3.5280001159999999   F   F   F
  5.2920001750000001 12.3480004070000007  3.5280001159999999   F   F   F
  1.7640000579999999  1.7640000579999999  3.5280001159999999   F   F   F
  1.7640000579999999  3.5280001159999999  1.7640000579999999   F   F   F
 12.3480004070000007  0.0000000000000000  1.7640000579999999   F   F   F
  7.2561510250361332 10.6084729070840709  7.3286260824596505   T   T   T
 10.5840003490000001  1.7640000579999999  5.2920001750000001   F   F   F
  6.5187250765380487 -0.4490594115230384  7.7051007724172660   T   T   T
  1.7640000579999999  0.0000000000000000  1.7640000579999999   F   F   F
 10.5840003490000001  1.7640000579999999  1.7640000579999999   F   F   F
  5.2304351431787284  5.1935897018235826  7.3987330629649879   T   T   T
  0.0362084662145514  8.6710483687479947  9.4763163701154234   T   T   T
  7.0560002329999998  5.2920001750000001  1.7640000579999999   F   F   F
  1.7640000579999999 12.3480004070000007  3.5280001159999999   F   F   F
  8.8200002909999995  1.7640000579999999  0.0000000000000000   F   F   F
 11.0105174850044705 10.3298814520029651 11.4777590521169603   T   T   T
 10.5840003490000001  7.0560002329999998  0.0000000000000000   F   F   F
  0.0000000000000000  1.7640000579999999  5.2920001750000001   F   F   F
 10.5840003490000001 12.3480004070000007  1.7640000579999999   F   F   F
  1.7640000579999999 10.5840003490000001  5.2920001750000001   F   F   F
  4.7797852787119393 10.6068900810463056 13.9971515210626656   T   T   T
  0.3809593392576053  0.3277647669942920 11.6177719098007799   T   T   T
  3.6492676785435783  0.0176983438152686  7.4917953225980414   T   T   T
 10.6078683550322026  3.4774002244629081 11.8724273355526684   T   T   T
  1.5868939966705182  6.5240501655301992 13.5287127015110435   T   T   T
  5.2920001750000001  0.0000000000000000  5.2920001750000001   F   F   F
  0.1775756811172178 10.5670517528554804 11.3278094027890521   T   T   T
  3.5280001159999999  1.7640000579999999  1.7640000579999999   F   F   F
  3.3629403958582684  7.0567628480226556 11.7498543197480725   T   T   T
  1.4749800018029595  8.6336424031616037  7.3165013603741542   T   T   T
 12.3480004070000007  7.0560002329999998  5.2920001750000001   F   F   F
  0.2004732315880626 12.7183480406268679 13.5510554429055823   T   T   T
  9.2618624350696876 -0.3483101034129349 13.5042342463115457   T   T   T
 12.9869870854384910 10.6920797607824571 13.3988068925764239   T   T   T
  5.5003841029909593  3.5624979707619264 13.9698110188275528   T   T   T
 12.3646848807057097  5.0282101325256630  7.2943180664696534   T   T   T
  3.5280001159999999  8.8200002909999995  5.2920001750000001   F   F   F
 10.8057946413170658 11.8632442768023694 13.6158932420793022   T   T   T
  0.0000000000000000  0.0000000000000000  3.5280001159999999   F   F   F
  0.0000000000000000  5.2920001750000001  1.7640000579999999   F   F   F
  1.5315565467278580  6.4838355469734124  9.4396901153549457   T   T   T
  7.1147137565644982  9.0125929892471408  9.3979105809851955   T   T   T
  6.4616972141347011 11.8266771895858298  9.7211964515368017   T   T   T
 10.3560093656504097  5.2964499524444770 14.1098577431392354   T   T   T
  1.7640000579999999  0.0000000000000000  5.2920001750000001   F   F   F
  7.0560002329999998  3.5280001159999999  0.0000000000000000   F   F   F
  5.2920001750000001  7.0560002329999998  1.7640000579999999   F   F   F
  3.5207167825366166  7.2912566923978259  7.4490635964431346   T   T   T
 10.5840003490000001  3.5280001159999999  3.5280001159999999   F   F   F
  1.7640000579999999  1.7640000579999999  0.0000000000000000   F   F   F
  8.5129330662242158  9.2568685474818739 11.4139201251680209   T   T   T
 12.3480004070000007  5.2920001750000001  0.0000000000000000   F   F   F
  0.0000000000000000 10.5840003490000001  0.0000000000000000   F   F   F
  8.8200002909999995  7.0560002329999998  1.7640000579999999   F   F   F
  3.2176974892147503  0.4136415003735927 11.6728973752918517   T   T   T
  0.0000000000000000  8.8200002909999995  5.2920001750000001   F   F   F
  3.0499576020536585 10.2691917133294268 11.5562865945182640   T   T   T
  5.3834074809994998  1.9715246985218406  7.3184615524859247   T   T   T
 10.6928901996744958  0.0079809348868647  7.5425258116833795   T   T   T
  8.9149863257795250 11.8665686945867712 11.7950734398694088   T   T   T
  4.9199188364274784 11.7809039325119418  7.3124449518796837   T   T   T
  0.0000000000000000 10.5840003490000001  3.5280001159999999   F   F   F
  0.0000000000000000 12.3480004070000007  5.2920001750000001   F   F   F
  8.7944039806642049 10.7870531788657065  9.5473015956199383   T   T   T
  5.2920001750000001  3.5280001159999999  5.2920001750000001   F   F   F
  5.2920001750000001 10.5840003490000001  1.7640000579999999   F   F   F
 12.3480004070000007 10.5840003490000001  1.7640000579999999   F   F   F
  0.0000000000000000  5.2920001750000001  5.2920001750000001   F   F   F
  7.1895494694957005  3.5801297538298424  7.2961291450340884   T   T   T
  8.8200002909999995  7.0560002329999998  5.2920001750000001   F   F   F
  9.2049438502327714  7.7006207856823066 13.7785210733774335   T   T   T
  7.0560002329999998 12.3480004070000007  1.7640000579999999   F   F   F
  0.0000000000000000  8.8200002909999995  1.7640000579999999   F   F   F
  3.5162542570639035  5.0256747972317299 13.5125363269703538   T   T   T
  1.7640000579999999 12.3480004070000007  0.0000000000000000   F   F   F
  3.5280001159999999  7.0560002329999998  3.5280001159999999   F   F   F
  1.1288240329397814  3.9613492173753291 13.6371138445954614   T   T   T
  8.8200002909999995  8.8200002909999995  0.0000000000000000   F   F   F
  1.7352525577127926  2.4612593212172698 11.7200635265402315   T   T   T
  8.9072673808910920  7.4394364310167482  9.7128044942943337   T   T   T
  0.0116891004173213  8.4131345117489094 14.1448172293920926   T   T   T
 11.1330682388875939  9.3591239969911246 13.9864077823899677   T   T   T
 10.5840003490000001  3.5280001159999999  0.0000000000000000   F   F   F
  8.8561224477534104  1.5099128021850783 11.7464605884997617   T   T   T
 10.4210063562241455  1.4407260772976194  9.6459154306627592   T   T   T
  2.9493066470535583  8.6157456811187210 13.6315271560976754   T   T   T
  3.5280001159999999  3.5280001159999999  0.0000000000000000   F   F   F
  8.8200002909999995  5.2920001750000001  0.0000000000000000   F   F   F
  5.0335842861013944  0.1672677746141446  9.9993998313569037   T   T   T
  3.2552202191759361  2.4230153683458453 13.7167762167746403   T   T   T
  0.1611461051347532 10.8082053529081819  7.3900181866578061   T   T   T
  3.5280001159999999 12.3480004070000007  1.7640000579999999   F   F   F
  5.2920001750000001 10.5840003490000001  5.2920001750000001   F   F   F
  3.5280001159999999  5.2920001750000001  1.7640000579999999   F   F   F
  8.9374273361310319 10.2271687802220921 13.5449545850656339   T   T   T
 12.3480004070000007  8.8200002909999995  3.5280001159999999   F   F   F
  1.9374203932988245  5.4355165943526895  7.3604034445162414   T   T   T
  8.6641862645491923  3.5734139447645736 13.8097067308521222   T   T   T
  0.0000000000000000  7.0560002329999998  3.5280001159999999   F   F   F
  5.7180988496935576  3.3345841062294932  9.2806795357454686   T   T   T
  1.7640000579999999  7.0560002329999998  1.7640000579999999   F   F   F
  5.2920001750000001  8.8200002909999995  3.5280001159999999   F   F   F
  1.7640000579999999  8.8200002909999995  0.0000000000000000   F   F   F
  1.7992975672341827 12.3348823049747871 11.5550048063007278   T   T   T
 12.2356758909269026  1.5040958915593554 11.4902660434112658   T   T   T
 12.0728291964501970 -0.1788250724786702 13.4698611396814130   T   T   T
  6.9203143166692085  8.8561096955452161 13.7465261278890853   T   T   T
 10.5840003490000001 10.5840003490000001  0.0000000000000000   F   F   F
 10.5840003490000001  0.0000000000000000  3.5280001159999999   F   F   F
  1.8963806963197505  3.8531306281342150  9.2733188070250137   T   T   T
 10.5840003490000001  8.8200002909999995  5.2920001750000001   F   F   F
  0.0000000000000000 12.3480004070000007  1.7640000579999999   F   F   F
  5.2920001750000001  3.5280001159999999  1.7640000579999999   F   F   F
 10.7945735869708042 12.2498908538361082  9.3788166181843753   T   T   T
  7.0560002329999998  8.8200002909999995  1.7640000579999999   F   F   F
  0.0373643432783828  6.3775557146692394 11.5265820055989376   T   T   T
  1.7640000579999999 10.5840003490000001  1.7640000579999999   F   F   F
  6.6178259297965667  7.2668017165349603  7.6576543210936387   T   T   T
  1.7640000579999999  3.5280001159999999  5.2920001750000001   F   F   F
  2.0080435796963290 12.2845603457640564  7.2974686385085299   T   T   T
  5.0424264632178772  8.9554455046972059 11.9186653252643318   T   T   T
  3.1783364191487808 10.2025674144417700  7.4173380991081057   T   T   T
 10.5663574776159805 -0.3038847081333745 11.4379922220828831   T   T   T
 12.3480004070000007  7.0560002329999998  1.7640000579999999   F   F   F
  8.7275589877760993  8.4723756567705717  7.2749893826589123   T   T   T
 12.3480004070000007  1.7640000579999999  3.5280001159999999   F   F   F
  1.9759281184425825  0.1343888049429970  9.5268416369640310   T   T   T
 11.8415501493255011  5.7116609456486005 12.0162717545152162   T   T   T
  8.8200002909999995 12.3480004070000007  0.0000000000000000   F   F   F
 12.3480004070000007  3.5280001159999999  1.7640000579999999   F   F   F
  5.1382384292686734  7.6224976311859294  9.7911979199790693   T   T   T
  5.2920001750000001 12.3480004070000007  0.0000000000000000   F   F   F
  7.0560002329999998  3.5280001159999999  3.5280001159999999   F   F   F
 10.5840003490000001  5.2920001750000001  1.7640000579999999   F   F   F
 12.3480004070000007  3.5280001159999999  5.2920001750000001   F   F   F
 12.3480004070000007  8.8200002909999995  0.0000000000000000   F   F   F
  7.0560002329999998 10.5840003490000001  0.0000000000000000   F   F   F
 11.9425235598964683  7.1571039296186143 13.9742184450747420   T   T   T
 12.2651300454901051  7.1859908523606677  9.9826206273598785   T   T   T
  7.0560002329999998  8.8200002909999995  5.2920001750000001   F   F   F
 12.3480004070000007  5.2920001750000001  3.5280001159999999   F   F   F
  1.3261210989382755 10.4274652803522443 13.4861480421806164   T   T   T
  7.0560002329999998 12.3480004070000007  5.2920001750000001   F   F   F
  3.5280001159999999  0.0000000000000000  0.0000000000000000   F   F   F
  3.5280001159999999  0.0000000000000000  3.5280001159999999   F   F   F
 12.3480004070000007 12.3480004070000007  0.0000000000000000   F   F   F
  5.3451012487189269  1.4672305046488963 12.5062916757780833   T   T   T
 12.5950708109138336 10.7000647940547395  9.2955502423008110   T   T   T
  7.0138210482995609  1.4258575370167352  9.9663435632650135   T   T   T
  0.0000000000000000  3.5280001159999999  3.5280001159999999   F   F   F
  6.6596625360509654 10.8534412327603675 12.0337119743696608   T   T   T
  7.0560002329999998  0.0000000000000000  3.5280001159999999   F   F   F
 -0.4401163665973259  5.1016193608778737  9.3950136636061128   T   T   T
 10.5840003490000001  8.8200002909999995  1.7640000579999999   F   F   F
  3.5280001159999999 10.5840003490000001  0.0000000000000000   F   F   F
 12.8944385183812624  8.5476228560887240 12.0216466911597735   T   T   T
  2.8383392157316290  8.4439715349494993  9.6404711096606004   T   T   T
  1.9867093119894741  4.9342036808441758 11.4882601219943297   T   T   T
  4.8419328768183423 10.0206895637388484  9.4319822826310862   T   T   T
  4.9424136977620288  7.2108065710307896 13.7604028245517345   T   T   T
 12.4320872591029552  0.0572699734609771  9.4232778758297986   T   T   T
  0.2632548015712199  3.6198664685742328  7.3074987757687655   T   T   T
 10.6353360403925201  9.0562303535940032  9.3864425836524426   T   T   T
  1.9143481930767434  0.4160471407593867 13.7378600237948714   T   T   T
  8.8200002909999995 10.5840003490000001  5.2920001750000001   F   F   F
  1.7640000579999999  5.2920001750000001  3.5280001159999999   F   F   F
  1.3229066598941883  8.4484443966106113 11.7805401972990769   T   T   T
  7.0560002329999998  7.0560002329999998  0.0000000000000000   F   F   F
 -0.2268295287883793  6.9361910354401246  7.3282524449114268   T   T   T
 12.6749597011716464  9.0626237889305781  7.3064926816402576   T   T   T
  0.0000000000000000  3.5280001159999999  0.0000000000000000   F   F   F
  2.8203149996116039 12.2953001513085294 13.7311386885817992   T   T   T
 10.5091243763396651  7.7917207375326525 11.7074290777546963   T   T   T
  3.5240430773059077  1.9911455792004942  9.2724626246784005   T   T   T
  6.9622509784765736  7.4299611717658651 11.7246127304489036   T   T   T
 12.0714480266275395  3.2375779648300909  9.6359469981980617   T   T   T
  4.5652923412450610 12.3588059788044120 11.9293932832876095   T   T   T
  0.2751568551285722 12.4698766331375577  9.5765238630829348   T   T   T
  5.2920001750000001  0.0000000000000000  1.7640000579999999   F   F   F
  5.2218309751263572  9.0403375256700897  7.1376197225107338   T   T   T
  1.7544058298294904  1.7129799716374459  7.2658017679677682   T   T   T
  8.8200002909999995  0.0000000000000000  1.7640000579999999   F   F   F
  8.8851108573860031 12.5530966148606886  7.2988650589159452   T   T   T
  8.8200002909999995  1.7640000579999999  3.5280001159999999   F   F   F
  3.5280001159999999 12.3480004070000007  5.2920001750000001   F   F   F
  1.6990304188276328 10.5763383563746949  9.3726791196431076   T   T   T
 12.3129978515785847 12.3053844306687914  7.2759328382814488   T   T   T
  3.4180687350757339  3.4777646864895084  7.2589659834567017   T   T   T
 10.5840003490000001 10.5840003490000001  3.5280001159999999   F   F   F
  0.0000000000000000  1.7640000579999999  1.7640000579999999   F   F   F
 12.4935993092456830  3.9595956578507407 13.6607918439477256   T   T   T
 -0.4154825036078352  3.6738739583036146 11.5332932162109234   T   T   T
  1.7640000579999999  5.2920001750000001  0.0000000000000000   F   F   F
  5.3889964409858280  5.5114386510173796 11.9995287669256250   T   T   T
 10.5840003490000001 12.3480004070000007  5.2920001750000001   F   F   F
 12.1945413332272459  0.8810822619122537 14.8594964657553170   T   T   T
  8.9163397120218661  2.3911818597663674 15.0569256936146498   T   T   T
  8.8289210437853090 -0.3979998612449304 11.6331019153448771   T   T   T
  0.1780333847412486  5.3126112449490046  7.0071662973904694   T   T   T
