Fe  H 
 1.0000000000000000
    14.2840003966999998    0.0000000000000000    0.0000000000000000
     0.0000000000000000   14.2840003966999998    0.0000000000000000
     0.0000000000000000    0.0000000000000000   32.0000000000000000
 Fe  H  
 256   4
Selective dynamics
Cartesian
  0.0000000000000000  0.0000000000000000  0.0000000000000000   F   F   F
  0.0000000000000000  0.0000000000000000  3.5710000989999999   F   F   F
 -0.0287421237346233  0.0046508891164918  8.0075940818247595   T   T   T
  0.0103525885843863  0.0537855447653051 12.2831041985189717   T   T   T
  0.0000000000000000  3.5710000989999999  0.0000000000000000   F   F   F
  0.0000000000000000  3.5710000989999999  3.5710000989999999   F   F   F
  0.0165334603457020  3.5826579232933091  7.9911892207532329   T   T   T
 -0.0307147965577300  3.6136014587056007 12.3347382344695440   T   T   T
  0.0000000000000000  7.1420001979999999  0.0000000000000000   F   F   F
  0.0000000000000000  7.1420001979999999  3.5710000989999999   F   F   F
  0.0035870037738256  7.1441154947391601  7.9430431398219907   T   T   T
  0.0027237748170884  7.1134545980419190 12.1218071815189674   T   T   T
  0.0000000000000000 10.7130002980000008  0.0000000000000000   F   F   F
  0.0000000000000000 10.7130002980000008  3.5710000989999999   F   F   F
 -0.0133790527235077 10.6890963720289101  7.9241467824682523   T   T   T
  0.0344542239770873 10.6592802307587906 12.2818840949690635   T   T   T
  3.5710000989999999  0.0000000000000000  0.0000000000000000   F   F   F
  3.5710000989999999  0.0000000000000000  3.5710000989999999   F   F   F
  3.5810337916795349 -0.0000260144137281  7.9568519551281733   T   T   T
  3.5628775189213853  0.0433025592085297 12.1829951924981739   T   T   T
  3.5710000989999999  3.5710000989999999  0.0000000000000000   F   F   F
  3.5710000989999999  3.5710000989999999  3.5710000989999999   F   F   F
  3.5802353422931561  3.5599496837208822  7.9336552449445135   T   T   T
  3.6420412234987909  3.5843295518568290 12.1728620435226880   T   T   T
  3.5710000989999999  7.1420001979999999  0.0000000000000000   F   F   F
  3.5710000989999999  7.1420001979999999  3.5710000989999999   F   F   F
  3.5722987695550321  7.1378014014770601  7.9406664720805082   T   T   T
  3.5941565157821538  7.1048177880066383 12.2265325868858632   T   T   T
  3.5710000989999999 10.7130002980000008  0.0000000000000000   F   F   F
  3.5710000989999999 10.7130002980000008  3.5710000989999999   F   F   F
  3.5615247834299311 10.7269575668984896  7.9633197198337120   T   T   T
  3.5695121208259377 10.7173049631905872 12.2215179026319927   T   T   T
  7.1420001979999999  0.0000000000000000  0.0000000000000000   F   F   F
  7.1420001979999999  0.0000000000000000  3.5710000989999999   F   F   F
  7.1337984908597294 -0.0141911136623849  7.9542425797803116   T   T   T
  7.1530103860027552 -0.0055895205856712 12.1927506329379529   T   T   T
  7.1420001979999999  3.5710000989999999  0.0000000000000000   F   F   F
  7.1420001979999999  3.5710000989999999  3.5710000989999999   F   F   F
  7.1390834473525304  3.5776775392192843  7.9208582641587482   T   T   T
  7.1880724346628746  3.5535601415039983 12.1228562525349020   T   T   T
  7.1420001979999999  7.1420001979999999  0.0000000000000000   F   F   F
  7.1420001979999999  7.1420001979999999  3.5710000989999999   F   F   F
  7.1315783080972635  7.1524061826174803  7.9259357113147910   T   T   T
  7.1712655835053880  7.1689069774748431 12.1856581459186959   T   T   T
  7.1420001979999999 10.7130002980000008  0.0000000000000000   F   F   F
  7.1420001979999999 10.7130002980000008  3.5710000989999999   F   F   F
  7.1279945560218545 10.7127683857686975  7.9144596389757833   T   T   T
  7.1097894093289549 10.7347647991502022 12.1225080291524332   T   T   T
 10.7130002980000008  0.0000000000000000  0.0000000000000000   F   F   F
 10.7130002980000008  0.0000000000000000  3.5710000989999999   F   F   F
 10.7172252546799118 -0.0020870376238277  7.9983189249766298   T   T   T
 10.7542886017732719 -0.0268310371341222 12.2270835012478312   T   T   T
 10.7130002980000008  3.5710000989999999  0.0000000000000000   F   F   F
 10.7130002980000008  3.5710000989999999  3.5710000989999999   F   F   F
 10.6800345158985017  3.5896951829428558  7.9495778172257943   T   T   T
 10.6599456351816446  3.5861271999271742 12.1465387336452952   T   T   T
 10.7130002980000008  7.1420001979999999  0.0000000000000000   F   F   F
 10.7130002980000008  7.1420001979999999  3.5710000989999999   F   F   F
 10.7074700535502547  7.1384481781041185  7.9473893749534179   T   T   T
 10.6859326957171383  7.1462563936281898 12.1655964170522601   T   T   T
 10.7130002980000008 10.7130002980000008  0.0000000000000000   F   F   F
 10.7130002980000008 10.7130002980000008  3.5710000989999999   F   F   F
 10.7058310401935746 10.7083901521095015  7.9695963445955718   T   T   T
 10.7373504498230208 10.7296314399837023 12.2462399479293200   T   T   T
  0.0000000000000000  1.7855000500000000  1.7855000500000000   F   F   F
  0.0259659589687422  1.7949526698274436  5.8326410443810763   T   T   T
 -0.0140487207818936  1.8274629695759190 10.2006271166168929   T   T   T
 -0.1967632572340458  1.4762477420359872 14.4425815749314470   T   T   T
  0.0000000000000000  5.3565001490000004  1.7855000500000000   F   F   F
 -0.0079653745267639  5.3501896835903642  5.7680870177810881   T   T   T
 -0.0005954725949621  5.3652606212985647 10.1027468774713274   T   T   T
  0.0088796435750640  5.7658838506706607 14.3403081054521504   T   T   T
  0.0000000000000000  8.9275002479999994  1.7855000500000000   F   F   F
 -0.0118509060873228  8.9195196224482380  5.7830253857903804   T   T   T
  0.0234787277743935  8.8683607752955709 10.0925650435085075   T   T   T
  0.2181266850729553  8.4827807641816300 14.4490179369533340   T   T   T
  0.0000000000000000 12.4985003470000002  1.7855000500000000   F   F   F
 -0.0089163325503817 12.5080289269359177  5.7632134460157642   T   T   T
  0.0224447908223958 12.5543590667143548 10.3475647210785304   T   T   T
  0.0050048192136657 12.8668916542073948 14.6389536892505738   T   T   T
  3.5710000989999999  1.7855000500000000  1.7855000500000000   F   F   F
  3.5725452265772133  1.7950425193846300  5.7838281417521307   T   T   T
  3.6060444587385194  1.8354923355461341 10.1110833371459901   T   T   T
  3.6310854404355797  2.2134700985583637 14.6397248163652431   T   T   T
  3.5710000989999999  5.3565001490000004  1.7855000500000000   F   F   F
  3.5785578618825440  5.3518357429290253  5.7562589269876812   T   T   T
  3.5936179266330628  5.3449009084015131 10.0790715542974532   T   T   T
  3.5503220110832205  4.8961851486703951 14.3963129256422349   T   T   T
  3.5710000989999999  8.9275002479999994  1.7855000500000000   F   F   F
  3.5773821564918418  8.9227203629360083  5.7651253449162017   T   T   T
  3.5684587431318082  8.9381708024237891 10.0911660758731454   T   T   T
  3.5248065787678207  9.2275637759157316 14.4118462815881028   T   T   T
  3.5710000989999999 12.4985003470000002  1.7855000500000000   F   F   F
  3.5760546644590265 12.4966465086124323  5.7672428072964861   T   T   T
  3.5616951607863472 12.4805351451251560 10.1496000994752205   T   T   T
  3.5511773946042120 12.1987574857132675 14.5825010248020277   T   T   T
  7.1420001979999999  1.7855000500000000  1.7855000500000000   F   F   F
  7.1476772319208006  1.7826442976266914  5.7792775466569477   T   T   T
  7.1561154977411627  1.7488654914688919 10.0777940961236432   T   T   T
  7.2019641566677794  1.3961195760692584 14.5462029287033765   T   T   T
  7.1420001979999999  5.3565001490000004  1.7855000500000000   F   F   F
  7.1395081494240662  5.3753325771477733  5.7508853035923178   T   T   T
  7.1434791997644140  5.3886629965556656 10.0690429383611910   T   T   T
  7.1957258788354519  5.7638130344301146 14.5461064834301599   T   T   T
  7.1420001979999999  8.9275002479999994  1.7855000500000000   F   F   F
  7.1385635264553233  8.9239109003583543  5.7629457569842035   T   T   T
  7.1298085432152520  8.9296252272613579 10.0465968619387720   T   T   T
  7.0727484596841839  8.5151670311821643 14.5958759849772459   T   T   T
  7.1420001979999999 12.4985003470000002  1.7855000500000000   F   F   F
  7.1408715068989190 12.4912379192385323  5.7643223223002948   T   T   T
  7.1349892212001471 12.5238148998283343 10.0748058935118827   T   T   T
  7.1827753524189131 12.8972246896907574 14.5597420020811406   T   T   T
 10.7130002980000008  1.7855000500000000  1.7855000500000000   F   F   F
 10.6790742731886610  1.7885126491461214  5.8371186458228408   T   T   T
 10.6952861673547641  1.8086843885034758 10.1083773156782186   T   T   T
 10.8935739304412422  2.2274359205325021 14.4516179202941721   T   T   T
 10.7130002980000008  5.3565001490000004  1.7855000500000000   F   F   F
 10.7082177367167315  5.3454824565046817  5.7601405657934901   T   T   T
 10.6901829415598115  5.3574376357989406 10.0780361140079435   T   T   T
 10.8242023901902726  5.0200210918749217 14.4362091464001256   T   T   T
 10.7130002980000008  8.9275002479999994  1.7855000500000000   F   F   F
 10.7114994015413476  8.9289346760799386  5.7834434524911735   T   T   T
 10.7081226820432480  8.9511335481461298 10.0607767502756236   T   T   T
 10.5759159708938562  9.3883655316413641 15.2210116757762162   T   T   T
 10.7130002980000008 12.4985003470000002  1.7855000500000000   F   F   F
 10.7141576023599150 12.5034411282322289  5.7761629515538262   T   T   T
 10.7264391904425995 12.4855256503151768 10.1244712077546772   T   T   T
 10.6717198525556185 12.0038514132333383 14.5360897670232276   T   T   T
  1.7855000500000000  0.0000000000000000  1.7855000500000000   F   F   F
  1.7797600176733790  0.0054327897048815  5.7213380685501409   T   T   T
  1.8086760953576584  0.0384811680976987 10.2267247316955459   T   T   T
  2.1085421874197050  0.1123284304386695 14.5309574559838239   T   T   T
  1.7855000500000000  3.5710000989999999  1.7855000500000000   F   F   F
  1.7758497095098105  3.5637928914643524  5.7722056471209573   T   T   T
  1.7917870195664469  3.5730816348430716 10.1098812122422093   T   T   T
  1.3547426867765515  3.5360995012019827 14.5998569521086026   T   T   T
  1.7855000500000000  7.1420001979999999  1.7855000500000000   F   F   F
  1.7967249908294440  7.1324225421108434  5.7664921894085746   T   T   T
  1.8291205096127958  7.1216044252665496 10.0776650826169227   T   T   T
  2.2596811817902918  7.0075232695693588 15.1325237103929471   T   T   T
  1.7855000500000000 10.7130002980000008  1.7855000500000000   F   F   F
  1.7833828230994069 10.7161960830892546  5.7724619222810887   T   T   T
  1.7724753508408155 10.7125347022905402 10.1103837069831375   T   T   T
  1.4411253475188954 10.7370675709228625 14.5606595840935107   T   T   T
  5.3565001490000004  0.0000000000000000  1.7855000500000000   F   F   F
  5.3438217386001163  0.0015905382466460  5.7645922858467609   T   T   T
  5.3292174772587293 -0.0017502676779784 10.0977239737580682   T   T   T
  4.9939063951985458  0.0330142212388930 14.4040496195339660   T   T   T
  5.3565001490000004  3.5710000989999999  1.7855000500000000   F   F   F
  5.3747559901328739  3.5787295531053163  5.7616025484635278   T   T   T
  5.4066763479852602  3.5713051672567482 10.0650789603432127   T   T   T
  5.8211090194833952  3.5859590319196237 14.3811120173038542   T   T   T
  5.3565001490000004  7.1420001979999999  1.7855000500000000   F   F   F
  5.3477666397567836  7.1386179394393672  5.7568600822774458   T   T   T
  5.3543462143216924  7.1477995202096816 10.0817312402689936   T   T   T
  4.9340234060528472  7.0560587864497295 14.4604254012388083   T   T   T
  5.3565001490000004 10.7130002980000008  1.7855000500000000   F   F   F
  5.3618138253404046 10.7021494909362858  5.7616045469841985   T   T   T
  5.3625029538423474 10.7270488110733577 10.0834809814340378   T   T   T
  5.6960085724955425 10.7374540296623255 14.4512003194949550   T   T   T
  8.9275002479999994  0.0000000000000000  1.7855000500000000   F   F   F
  8.9292634273557319  0.0045208287481953  5.7673024269488913   T   T   T
  8.9493701046107645 -0.0258333921816404 10.1106256936628309   T   T   T
  9.3978883068923924  0.0179164650433603 14.4775524017328916   T   T   T
  8.9275002479999994  3.5710000989999999  1.7855000500000000   F   F   F
  8.9249307217046425  3.5658082580043748  5.7547859441595435   T   T   T
  8.8918931632994056  3.5713224633355893 10.0572822441304748   T   T   T
  8.6383360543561594  3.5795570180530194 14.4713160128213865   T   T   T
  8.9275002479999994  7.1420001979999999  1.7855000500000000   F   F   F
  8.9254551353659135  7.1445132592770948  5.7519587835254997   T   T   T
  8.9265710582660986  7.1631139268194088 10.0732159987072620   T   T   T
  9.3475050665135733  7.2086406647132275 14.4170191931799945   T   T   T
  8.9275002479999994 10.7130002980000008  1.7855000500000000   F   F   F
  8.9155197617253990 10.7077342233852573  5.7604612353800286   T   T   T
  8.9204711012771085 10.7225100122453174 10.0729267291345899   T   T   T
  8.4913408652187208 10.6446865420104437 14.3334964097407873   T   T   T
 12.4985003470000002  0.0000000000000000  1.7855000500000000   F   F   F
 12.5012695478950633 -0.0152497208895816  5.8497934837766774   T   T   T
 12.4922401752312009  0.0357859283595747 10.1585626713490651   T   T   T
 12.0686736288865237 -0.1097206062479689 14.7175172401636374   T   T   T
 12.4985003470000002  3.5710000989999999  1.7855000500000000   F   F   F
 12.4904718365991911  3.5951676769200884  5.8530702289730989   T   T   T
 12.4966868758812897  3.5929461906532114 10.1114529178616195   T   T   T
 12.9520938134965196  3.7136090148022802 15.2729331643061688   T   T   T
 12.4985003470000002  7.1420001979999999  1.7855000500000000   F   F   F
 12.4869115031701643  7.1229825305695389  5.7636544612618170   T   T   T
 12.4690787346084644  7.1315060799543017 10.0812209493498042   T   T   T
 12.2099902581932103  7.2553890726634664 14.8316872819241681   T   T   T
 12.4985003470000002 10.7130002980000008  1.7855000500000000   F   F   F
 12.4935016880289407 10.7138104494949928  5.7811816539542669   T   T   T
 12.5257760925935226 10.6673679354300166 10.2494713547121048   T   T   T
 12.8824886521657085 10.5837116101339230 14.5848856343653566   T   T   T
  1.7855000500000000  1.7855000500000000  0.0000000000000000   F   F   F
  1.7855000500000000  1.7855000500000000  3.5710000989999999   F   F   F
  1.7741105284096998  1.8101976207302684  7.9303420983098034   T   T   T
  1.7929430080158160  1.8633460964029653 12.4099178430761601   T   T   T
  1.7855000500000000  5.3565001490000004  0.0000000000000000   F   F   F
  1.7855000500000000  5.3565001490000004  3.5710000989999999   F   F   F
  1.7987250648431650  5.3540458745318151  7.8996096680933450   T   T   T
  1.8022053115401135  5.3286623298976856 12.3162171364457596   T   T   T
  1.7855000500000000  8.9275002479999994  0.0000000000000000   F   F   F
  1.7855000500000000  8.9275002479999994  3.5710000989999999   F   F   F
  1.7832327156583483  8.9371643537644054  7.8981263545451279   T   T   T
  1.8141464432539189  8.8888851516133727 12.2962379621315439   T   T   T
  1.7855000500000000 12.4985003470000002  0.0000000000000000   F   F   F
  1.7855000500000000 12.4985003470000002  3.5710000989999999   F   F   F
  1.7798837338401396 12.4626799453074888  7.8801047542723079   T   T   T
  1.7898928441890005 12.5283571907354432 12.4928794009518551   T   T   T
  5.3565001490000004  1.7855000500000000  0.0000000000000000   F   F   F
  5.3565001490000004  1.7855000500000000  3.5710000989999999   F   F   F
  5.3523290791851936  1.7727833628595127  7.8957071513466968   T   T   T
  5.3970705279290332  1.7860739633872857 12.3422256896012303   T   T   T
  5.3565001490000004  5.3565001490000004  0.0000000000000000   F   F   F
  5.3565001490000004  5.3565001490000004  3.5710000989999999   F   F   F
  5.3558759365192952  5.3612584809044250  7.8868662799297997   T   T   T
  5.4200392653070848  5.3589728691287979 12.3027375829981409   T   T   T
  5.3565001490000004  8.9275002479999994  0.0000000000000000   F   F   F
  5.3565001490000004  8.9275002479999994  3.5710000989999999   F   F   F
  5.3464636395136349  8.9278518592472391  7.8962474764826336   T   T   T
  5.3485326809889937  8.9126190831243353 12.3328624326927905   T   T   T
  5.3565001490000004 12.4985003470000002  0.0000000000000000   F   F   F
  5.3565001490000004 12.4985003470000002  3.5710000989999999   F   F   F
  5.3414941477649478 12.5079068880560182  7.8925662391339078   T   T   T
  5.3366729513234921 12.5259454315092054 12.3683159825249707   T   T   T
  8.9275002479999994  1.7855000500000000  0.0000000000000000   F   F   F
  8.9275002479999994  1.7855000500000000  3.5710000989999999   F   F   F
  8.9225784706234368  1.7728742414178058  7.9049218338234724   T   T   T
  8.9625930861997922  1.7556723003154890 12.3588323361304226   T   T   T
  8.9275002479999994  5.3565001490000004  0.0000000000000000   F   F   F
  8.9275002479999994  5.3565001490000004  3.5710000989999999   F   F   F
  8.9067854367865440  5.3779225387247669  7.8811060939061548   T   T   T
  8.9245469798653261  5.3716178671520414 12.3651120068212279   T   T   T
  8.9275002479999994  8.9275002479999994  0.0000000000000000   F   F   F
  8.9275002479999994  8.9275002479999994  3.5710000989999999   F   F   F
  8.9291184064338687  8.9317113892313387  7.8830268275430555   T   T   T
  8.9091441821154724  8.9639771142494542 12.2495822337684999   T   T   T
  8.9275002479999994 12.4985003470000002  0.0000000000000000   F   F   F
  8.9275002479999994 12.4985003470000002  3.5710000989999999   F   F   F
  8.9306724346793942 12.4873599767993930  7.8979170077813690   T   T   T
  8.9326786781304879 12.4904799499533699 12.3410525394782109   T   T   T
 12.4985003470000002  1.7855000500000000  0.0000000000000000   F   F   F
 12.4985003470000002  1.7855000500000000  3.5710000989999999   F   F   F
 12.5035076191283405  1.7975988542876440  8.0240662837058423   T   T   T
 12.4634721811796823  1.8286389204240618 12.3054408590069446   T   T   T
 12.4985003470000002  5.3565001490000004  0.0000000000000000   F   F   F
 12.4985003470000002  5.3565001490000004  3.5710000989999999   F   F   F
 12.4963289065643028  5.3450893431117326  7.9129087334464874   T   T   T
 12.4552619659867059  5.3728081241688832 12.3194119056073124   T   T   T
 12.4985003470000002  8.9275002479999994  0.0000000000000000   F   F   F
 12.4985003470000002  8.9275002479999994  3.5710000989999999   F   F   F
 12.4870908043273321  8.9055595279510698  7.8999860177870591   T   T   T
 12.5075539597861738  8.8791895458777059 12.4392940492137711   T   T   T
 12.4985003470000002 12.4985003470000002  0.0000000000000000   F   F   F
 12.4985003470000002 12.4985003470000002  3.5710000989999999   F   F   F
 12.4778773094587194 12.5148962624662410  7.8744708197054436   T   T   T
 12.5538396096623828 12.4874114579051412 12.5655100387217740   T   T   T
 10.9736039855887650  8.1534251179114605 13.7272838114577809   T   T   T
 13.4133321412213178 11.6914551216306499  9.1210718344658481   T   T   T
 12.4874373280871751  1.7922027042277173  5.3947348933603765   T   T   T
  1.7846551796340346 -0.0178488787071216  8.3525953060608042   T   T   T
