Cr Co Ni  H 
 1.0000000000000000
    14.1120004653999995    0.0000000000000000    0.0000000000000000
     0.0000000000000000   14.1120004653999995    0.0000000000000000
     0.0000000000000000    0.0000000000000000   14.1120004653999995
 Cr  Co  Ni  H  
  85  86  85   4
Cartesian
 10.6940329379520556  3.6162139004759983  7.1363202046094294
  8.8604749267546055  3.5292984762944162  5.2558090825043626
 10.7347521004244690  5.3974970004257976  5.3105024590411283
 -0.0025571192801513  7.0970223893162601 -0.0448835977477115
  8.7755690699010991  5.3974218098666489  7.0878681003377846
 12.3448675101600482  1.7494401090213809  7.1618539522765676
  5.2437850027209247  1.7390387847110189 -0.0004259340405512
  3.5624931916366527  3.5269333022070777 10.5824026878627233
  5.3066591787858757  8.7889703985633520 -0.0373495519203740
 10.6179005595163058  1.7396480804391687 12.2652676828607508
  6.9963005901096036  5.4268899991564750  8.8776098675261483
 10.6630439274278643  5.4254990156408969  8.8798492642348030
  8.8277915770181501 12.2902512281305558  3.5460804499778917
  6.9612132408421505  3.5558855903285949 10.6130179156631392
  8.7959979409315672 10.5114457428263055  1.6846774586197200
  8.9192582155539366  1.7257161062488635  7.1118382478162321
  3.4008561240519737  7.0653886015307901 -0.0744030678464454
  8.8845562016552773  5.4143755979312544  3.4896443086889337
  0.0324792445628165  1.7543822551465802  8.8802884486917577
 10.5573967959500816 10.5422568860315859  7.1308405333546796
  7.0643823391704448  7.1396232599197997  3.4300040540246646
  7.0952834100292588 -0.1058074674635026 -0.0324885641578100
  3.4347304854976803  1.7912639176334868  5.3581593528672746
  5.1949898960761685 -0.0953148728586259 12.3396085462792708
 10.6797956430945753  7.1744567537579043  7.0731493122791171
 10.7059486758132234  7.1188436988862831  3.4231156426375984
 12.3435288348439869 10.5601251675976506  5.3257272392254640
 -0.0160862393496367  5.2807523535881433 12.2724923017059950
  7.0004744919034172 -0.0048662237085993 10.5579582121068718
 12.4120949434778698 12.2571101232492303  3.5009913675029476
 12.3806374411936151  1.8799160776832735 -0.0257665318498770
  5.1808797248196381  7.1501448498151055  5.3674643663662689
  7.0227566384898905  1.7519521333479628  5.2852096612666903
  5.1971863078262261  1.6617474477078220  3.5295068201848556
 12.3465876577192937 12.3133778729382417 10.5501528387699146
  3.4265669559248995  8.8579904882568670  1.6992488554142831
  8.8986288679368837  8.8343529141635955  3.5497528045968694
 10.6047720043574181 -0.1078959652772595 -0.0521005413024317
  5.2094948487018993  5.3636944576859378 -0.0259487263045570
  8.8784932291604637 -0.0441435684233278  8.9002269137894849
  7.0904658886473690  1.6977184870854662  1.7606927985220164
  3.5129030996447352 10.6263955497333580  3.5050207641926234
  7.0641709631414376  1.7865911395970637 12.2986050403126708
 12.3776634249375892 -0.1081038855347376  5.2903058797866409
  3.4632152659837088  3.5439229274684116  3.4967575897966987
  7.0258735129934564  5.3405437595216689  5.2945307846774137
  6.9851730047814105 10.5362815429070711  3.5902797071943002
  8.8399655595270339 -0.0811239005914943  5.2969648187132066
  8.8556323176990084  3.5581399955060546  1.7529995812490931
  3.4597270352767002 12.2550203147539989  8.8488336382789576
  8.7983244965044758  3.5054781359332190  8.8554574631622067
  3.5130714881591136  5.3484131018949617  8.8489542553692733
  5.2522623268053445  5.3106253785816886  3.4794040489676203
  1.6995646842214107  7.0601334273132252  5.3295290572326870
  6.9955740422185775  5.3868273641679574 12.3812656381511914
  3.4384281520994904  5.2643377800193791  5.3407636134975380
  0.0709980778814225 -0.1066991759178744  7.1594745537361302
 -0.0021811114713501 -0.0557553321119056 -0.1127582359214357
  0.0299144764168537  1.8361953781738554 12.2852788735642839
  7.0671081137260519 12.2549605814078575 12.2942690103326200
  8.8321900604452122  5.4404655943138192 10.6255643805511060
  1.7260529564765799  8.8197684275249468  3.5379570066653310
  5.2759164771273772 12.4201608239878265  3.5714503648433289
  1.6814959691132241  1.7399769677266508  3.5085724380502810
  1.6735566276902285  3.5663566727474327  1.7069669940935983
 12.4634522953402360 -0.0262943018452229  1.7605023301382896
  7.0957817230597859 10.5543816217466446  7.0604841497694366
 10.6612341529218586  1.7453842924727740  5.2107089212308981
  7.0149526453727420 -0.0919435465041731  7.1477853143969208
  1.7255829235716216 -0.0234412731847993  1.6940256358367938
 10.6323676762215307  1.7316497989391046  1.8203229469316173
  5.2487441694891670  5.3179109745530759  7.1005933345168568
 -0.0210543206407506  8.8131053057650934  8.8708973742247590
  7.0282150935104797  5.3206464912915248  1.6480686534967528
  1.6963562477713001 12.3495032159020433  3.4903962136618261
  8.8592518448159279  1.7410993871128535 -0.0514952267416632
 10.6315172404236016 10.4801852344628248 10.5691646237432018
 10.7078919998316859  7.1107534565287045  0.0345840968717563
  0.0239292151862594  1.8111921582451089  5.3396664807139018
 10.6260394431823144 12.2525477915269363  1.7053873773176806
  1.7910194050096642 10.5879898122990657  5.3665001394285854
  5.2508396288975066 10.5752754560583462 12.3144403289988418
  0.0435578578420830 -0.0593674746473402 10.6269416835795099
  3.4265018329502768 -0.0097700982794391  7.0980349066964408
 10.6388020518539843  3.6031144738019076 10.5993274031346516
  1.7603707783727491  7.1228201246085723 12.2170767040730190
  5.2744261059564117 -0.0303397324597760  5.3852016673851990
  0.0279798406448212 10.5941230060453986 10.6390241066406919
  3.4858663845094142  1.7208920433347417  1.6773571415365152
  3.5073616237687242  7.1372114439174732 10.6028726727575560
  1.7728389006236953  8.8393445196842002  7.1277609772674264
 12.5342981836853653  7.1512644904939231  5.2942956263059884
  0.0432421330405919 12.2238282899186448 12.3728909851015860
  8.8585125018205702 -0.0850289299848254 12.2125070383273560
 12.4216187447532125 10.5292961437553156 12.3776101607953901
  5.1862121621998662  3.5091857859749869 12.4034010399511718
 12.5627340290046448  5.3286151893364027  7.1058055822846926
  3.5243795682709402  8.8254020176854908  5.3424152124626056
 10.5487177097679670 12.2612713923037049 12.3518829700586448
 -0.0042516009091580 -0.0260103264944243  3.5398552759475881
 -0.0595175829201346  5.3154052696414498  1.7483405720770191
  1.7624269325589659  7.0623575619440375  8.8502639950213311
  7.0135892914201543  8.7832441282100095  8.8704786911508275
  7.0907041981990506 12.2175323270575813  8.9215443911435788
 10.6938425213394321  5.3689085308684170 12.3704583399346486
  1.6776346014373873 -0.1038071235336140  5.2944699736433831
  7.0734215471054966  3.5270575113227896 -0.0733713556975229
  5.2239282534271201  7.0976296790773903  1.7844446788604758
  3.4380399966305806  7.1950382799413557  7.1590969527142327
 10.6529300946531347  3.5440967888614261  3.5054591802792832
  1.8107949243754708  1.7948912750852379 -0.0529228734628670
  8.7948345183226060  8.7645194730350351 10.6200511401327535
 12.3544872718464767  5.2002233812110372  0.0332018170795295
  0.0272308176701091 10.5696242664428190 -0.0387962976545518
  8.8339337373566398  7.1280676670795255  1.6351854709312421
  3.4647293071461243  0.0230804087346654 10.5723403775462259
 -0.0174337738104104  8.8610905631152033  5.4033771433485640
  3.4483786048464644 10.4936329084658393 10.6077130932160735
  5.2739257747884762  1.8279563066189803  7.1139427617555357
 10.6480856544334692 -0.1082778743879666  7.1121417608372370
  8.8812971751491538 12.2281532527669921 10.5895856768322698
  5.2551642612598322 12.2640966975600527  7.0263289681901906
  0.0086878891229518 10.5190306259884654  3.4763740458906054
  0.0263913776460728 12.2866808579546447  5.3402631212835221
  8.7600710462095748 10.4786986780583327  8.9176744775271128
  5.2846134605319959  3.5339958104582587  5.3769744383524296
  5.3408111560232028 10.6400900962946547  1.6661860993943591
 12.4185426265844221 10.4983169849683726  1.6869735859190589
 -0.0554350675266228  5.2648365116582942  5.2803295509440877
  7.0598411664298677  3.4929891191183562  7.0897376024451590
  8.7788700289671837  7.1381605514111062  5.3711293226745447
  8.8589546678913909  7.1556542207387253 12.3909015189792431
  7.0310576764661095 12.3372349739791698  1.6904459363733486
  0.0471109224313421  8.8651558276228268  1.7300715027257276
  3.4390316259499221  5.3423517560707028 12.2483034565807074
  1.7932918214558518 12.2365991263704572 -0.0902729806054540
  3.4978898036583415  7.0571453757115981  3.4801135003322874
  1.8111068578952667  3.5466393249428316 12.3600721914632175
  8.7775494611558180  8.8065378144533852 -0.0643230303168294
  1.8619214941510440  1.7690973559734857 10.6048783604591232
  8.7843884383878557  7.2564112632560338  8.8664946608944710
  0.0205807400970982  8.8563090039663948 12.2719014875371286
 10.6075659033684389  8.8156554429410239 12.3565457355765655
 10.6106631476664965  3.6505446488676716 -0.0818075060094424
  8.8313101231970084  1.7850588292701903 10.5813230242880056
 10.6717218936850582  1.7376320040415065  8.9489252934597552
  3.4286887210518615  8.8161073777225649 12.2828807870203356
  3.4504851939471579  3.5760443992996200 -0.0596036151037955
  8.8876942184986287  5.3301433017230542 -0.0749646331965857
  5.2213032932439507  0.0758732703099166  8.8632518485086216
  3.4302399087880113  1.7466260979434565 12.3737066358316827
 -0.0034095315925033 10.6485804363917982  7.1228484354208303
  3.5445020345565177 12.2949992178736380  1.6221629305215199
  5.1786605034661362 10.5108425261313272  5.3819353424736098
  3.4480135855814247  5.3786678092532796  1.7714534496605370
  8.8353398068471645 10.4698953587711561 12.3651386989768692
 12.4583453711592664  8.8689238618677546  3.4778858661360750
  1.6479470964215670  5.2698438474828722  7.1418578501176126
  8.8756354541528566  3.6151494011257670 12.3949859964273781
 -0.0537431657160568  7.0667210194728813  3.4928327781308095
  5.2904468853798603  3.4407959925734812  8.7721207080181394
  1.6766255397245544  6.9661348524252906  1.7967840796312997
  5.1674717576778786  8.8717828688067204  3.3967016452754351
  1.6897728758201929  8.8906809648086380 -0.0803647240524467
  1.7547668304845114 12.2525025407595063 10.6541748260467504
 12.3649071854857766  1.7281471049357144 10.5594039111721152
 12.3424253287054615 -0.0862740836264198 12.3353213390323351
  7.0994135165619117  8.8004663985165408 12.3038022544162313
 10.6236959313121524 10.5115586843756770 -0.1220384449661044
 10.6197681200687342 -0.0340320108749733  3.4823145093458820
  1.7170118456152512  3.5568417568797388  8.8014961189823389
 10.6217564010317407  8.7609080222012459  5.2822991531143835
 -0.0140169700684900 12.2571707963101861  1.6832642405558955
  5.1592315476946631  3.5646135990857051  1.6397375608135734
 10.5763097378053157 12.3104837794975843  8.8489019007272471
  7.0162476266920066  8.8191534724584564  1.7162465152366639
  0.0241453768778059  7.0795866752216536 10.5926586495104722
  1.7306385111060791 10.6055560569830583  1.7060536580843453
  7.0292362751337780  7.1417325788884520  7.0832027322101201
  1.6804315339547340  3.5996003015443137  5.3335244196401046
  1.7403033547098152 12.2893500479060176  7.0957488579199826
  5.2575854145100331  8.8184317455910488 10.5927594308956046
  3.5122869211304812 10.5337603685134784  7.0889148506177024
 10.6110423382685770 -0.0334498444383677 10.6410181824391508
 12.4477200026132113  7.1241257464077954  1.7447675285833923
  8.8200023660836102  8.7880387026590423  7.0797640390385856
 12.4286820955344393  1.7443030883192470  3.5210619759715795
  1.7803252249808272 -0.0408542986691542  8.9061905545397604
 12.3713844411267910  5.3573790042395295 10.5842518083612163
  8.8449972292252390 12.2811853903975567 -0.0643558408791319
 12.3646209346238862  3.5481683485878972  1.7790442317236683
  5.2428344607302906  7.1393492784281820  8.8416123666413124
  5.2601507139741699 12.3006532091116281 -0.0209914055862948
  7.0707475569883913  3.6106066297748347  3.5782423559751311
 10.6318279069945714  5.2886786507370198  1.7283849930583894
 12.4257734184011088  3.4895901197497348  5.3965158894622052
 12.4291432122799126  8.8739791749370980 -0.0438263183316642
  7.0652696788290950 10.5700142300994475 -0.0369594932554927
 12.3789532423772162  7.1057877725684087 12.3122225329612558
 12.4006061563911594  7.0787045415378858  8.8666597508190215
  7.1059286324327280  8.8478604886673455  5.3748933576676139
 12.4246571330127189  5.3671649786820197  3.4427131329944927
  1.7634548897750617 10.5301566676420002 12.3184735885113792
  7.0220529142571380 12.3304025880719976  5.3330951252801793
  3.4698274129713318 -0.0533140719256460 -0.0312248352629746
  3.4739231586534336 -0.0247108834513794  3.5447250861782296
 12.3728119701367731 12.2614704360555642 -0.0765142700783657
  5.2262704735140915  1.7446177553534281 10.6012131702523256
 12.3922240022504102 10.5671169211949287  8.8229353200133911
  7.0344955069115560  1.7981817952403010  8.8205737910129614
 -0.0304825791117457  3.5714372977702320  3.5278424699673465
  7.0655785052911746 10.4931667818172230 10.5867418289533148
  7.0569804208604383 -0.0487104001616474  3.4992990891637699
  0.0216631338601147  5.3258701830368373  8.8766423153482297
 10.6606214798147718  8.8945133412143136  1.7039478266380572
  3.4905827752297904 10.5570263500687123 -0.0420819144739118
 12.3843543381614101  8.8147541758512702 10.6331995133646746
  3.4944303312290277  8.8396479972864928  8.8664085260940979
  1.7522970972995411  5.3135483816053863 10.5555164358943792
  5.2795596585357396 10.5182688398735724  8.8789859848946406
  5.2251113667586448  7.1252186896403416 12.2955522297395401
 12.3134049333911904 -0.0344818021075388  8.8446652179253906
 -0.0046377854382777  3.5604997421277322  7.1204473711459562
 10.6247605667865201  8.7827917013293995  8.8700181388551531
  1.8139912569099819 -0.0438553563511356 12.3436450727443727
  8.8734109179644829 10.5814418508647705  5.2972645390354494
  1.7018018186404942  5.3303600601637022  3.5250710088051420
  1.7523822805324567  8.8283281959310358 10.5766757944192431
  7.0607461773263216  7.1162975981771943 -0.0129510603803181
  0.0337081136319902  7.0572635182618466  7.1026320258573321
 12.4086861756085263  8.8236552616770858  7.0829090226176730
 -0.0057552345683528  3.5628708724972884 -0.0242437421499984
  3.4791066635728476 12.2979469448627583 12.2876122772174163
 10.6234208496385936  7.1356173640319964 10.6428063170124361
  3.4804592949773041  1.7714804766957430  8.8192369155551820
  7.0121568943242041  7.1374081965010649 10.6187846862818720
 12.4043162688266637  3.5733648516243157  8.8738677149307730
  5.2454759922372833 12.3024900365413394 10.5630594035493299
  0.0510254779579168 12.2856996603659088  8.8729765345847014
  5.2250311249895063 -0.0662197215186782  1.7014841212173506
  5.2476576502991037  8.8397338589965671  7.1204273683368928
  1.7231650862739680  1.7933158230666830  7.1006268332748412
  8.8492493379850767 -0.0722410909251957  1.7753828749673313
  8.8490237520694759 12.3266227280540175  7.1049114376780906
  8.8525148272038248  1.7389308843477351  3.5252273794736300
  3.5148765112753462 12.3580653504111897  5.3461922045462984
  1.7387375886275285 10.5596707623130754  8.8455295048885265
 12.3656992563921762 12.3281843957403847  7.1253875908916378
  3.4716418986387727  3.5279861341190624  7.1089930994551658
 10.6446244429498957 10.5209367139512704  3.5165179540099492
 -0.0316000108860562  1.7842475587968312  1.7245704628875254
 12.3614095500107126  3.5527711978831946 12.2848969447245135
  0.0309894267147324  3.5332240011705247 10.5449508365093649
  1.7558710244700384  5.3014704148292742 -0.0434619433314478
  5.2511717406701175  5.3694290822575796 10.6169865095247893
 10.5925107921845747 12.3485718341090287  5.2864461738909867
 11.7690728093693888  4.3170839962982104  4.3235244338182888
  6.1527389282465874  8.1633628867829451  4.4312006813018359
  6.1284508911331983  2.8885927158755598  2.6213806846509624
  5.3748272904508356 12.3271403630246930  8.8592027104357687
