Al  H 
 1.0000000000000000
    17.1319389342999990    0.0000000000000000    0.0000000000000000
     0.0000000000000000   12.1141109467000003    0.0000000000000000
     0.0000000000000000    0.0000000000000000   32.0000000000000000
 Al  H  
 216   3
Selective dynamics
Cartesian
  0.0000000000000000  0.0000000000000000  0.0000000000000000   F   F   F
  0.0121731183335349 -0.0091436565387588  5.7170773684741834   T   T   T
  0.0046170683085127 -0.0056664499413657 11.4547420884266540   T   T   T
  0.0000000000000000  4.0380371029999997  0.0000000000000000   F   F   F
 -0.0084709813097653  4.0289331272520652  5.7106667668041800   T   T   T
 -0.0157951321525323  4.0344687282211789 11.4646583588568660   T   T   T
  0.0000000000000000  8.0760742049999994  0.0000000000000000   F   F   F
 -0.0005541107700695  8.0784754248597679  5.7215754846434512   T   T   T
  0.0037257670550012  8.0758137423106984 11.4542136846393845   T   T   T
  5.7106464819999996  0.0000000000000000  0.0000000000000000   F   F   F
  5.7088307669057308  0.0105365668508872  5.6637379021060559   T   T   T
  5.7233108511075406 -0.0396433752410291 11.5775338256432399   T   T   T
  5.7106464819999996  4.0380371029999997  0.0000000000000000   F   F   F
  5.7114524992287015  4.0362332727311250  5.7267806769384704   T   T   T
  5.7081209321634727  4.0247111619900817 11.4392307283232633   T   T   T
  5.7106464819999996  8.0760742049999994  0.0000000000000000   F   F   F
  5.7080159095580463  8.0634782207955347  5.7345053909412833   T   T   T
  5.7024573335774287  8.0847373796204618 11.4382916589527461   T   T   T
 11.4212929630000009  0.0000000000000000  0.0000000000000000   F   F   F
 11.4216278138604466  0.0191528129883762  5.7263834784092076   T   T   T
 11.4181056786429824  0.0040425098874213 11.4495526324169621   T   T   T
 11.4212929630000009  4.0380371029999997  0.0000000000000000   F   F   F
 11.4223701344292721  4.0811685420891850  5.6406497192521226   T   T   T
 11.4333270244426188  4.0538830638156318 11.4948961524960129   T   T   T
 11.4212929630000009  8.0760742049999994  0.0000000000000000   F   F   F
 11.4241345300032862  8.0756340734246255  5.7201645321589547   T   T   T
 11.4216172289540250  8.0930360005274675 11.4634637436883828   T   T   T
  2.8553232409999998  0.0000000000000000  2.8553232409999998   F   F   F
  2.8819427620376090 -0.0075278116801568  8.5871098801039203   T   T   T
  2.8539461156417345  0.0014019817485762 14.3393921748658553   T   T   T
  2.8553232409999998  4.0380371029999997  2.8553232409999998   F   F   F
  2.8238217844179125  4.0712959663840014  8.5672933305240431   T   T   T
  2.8558814048150114  4.0373655383051172 14.3217214435301177   T   T   T
  2.8553232409999998  8.0760742049999994  2.8553232409999998   F   F   F
  2.7523325328988228  8.0068444950046924  8.5798821031571340   T   T   T
  2.8501878193502268  8.0698481950882783 14.3248405510266661   T   T   T
  8.5659694670000004  0.0000000000000000  2.8553232409999998   F   F   F
  8.5141639684124648 -0.0230964154203306  8.5955672144184607   T   T   T
  8.5662002180943837 -0.0016168110660600 14.3256717037981716   T   T   T
  8.5659694670000004  4.0380371029999997  2.8553232409999998   F   F   F
  8.6206281095319834  4.0448619692815493  8.5605685252483052   T   T   T
  8.5651979623167005  4.0368493164596906 14.3265783507257503   T   T   T
  8.5659694670000004  8.0760742049999994  2.8553232409999998   F   F   F
  8.6076119958796422  8.0635566511375387  8.5778219410348022   T   T   T
  8.5704688657894614  8.0700631492980701 14.3312042374607298   T   T   T
 14.2766154380000003  0.0000000000000000  2.8553232409999998   F   F   F
 14.3097660848075936 -0.0295921587195945  8.5886421537659245   T   T   T
 14.2759054776304186 -0.0002332732689716 14.3229816472106020   T   T   T
 14.2766154380000003  4.0380371029999997  2.8553232409999998   F   F   F
 14.2586410630026510  4.0276333364107764  8.5702612915703256   T   T   T
 14.2771630532627025  4.0369955821185881 14.3280211280185021   T   T   T
 14.2766154380000003  8.0760742049999994  2.8553232409999998   F   F   F
 14.2646024345829385  8.0767961440852307  8.5730870930710914   T   T   T
 14.2780252999993564  8.0779022642144565 14.3240822171638804   T   T   T
  1.4276616200000001  2.0190185509999998  1.4276616200000001   F   F   F
  1.4425378881974458  2.0183374798675655  7.1508894957787259   T   T   T
  1.4210288113691938  2.0304530839193555 12.8485507610437502   T   T   T
  1.4276616200000001  6.0570554730000001  1.4276616200000001   F   F   F
  1.3886144150852915  6.0377670776054151  7.1252002964850085   T   T   T
  1.4263876996605238  6.0733227232225806 12.8495598203877197   T   T   T
  1.4276616200000001 10.0950922149999993  1.4276616200000001   F   F   F
  1.4448009041117482 10.0903100041750857  7.1534922607553328   T   T   T
  1.4315723727909857 10.1006628870674664 12.8430083501711927   T   T   T
  7.1383077190000002  2.0190185509999998  1.4276616200000001   F   F   F
  7.0923235671001228  1.9949582277101698  7.1635833844173060   T   T   T
  7.1359323352847968  2.0195780769089708 12.8349401891211894   T   T   T
  7.1383077190000002  6.0570554730000001  1.4276616200000001   F   F   F
  7.1717108634069584  6.0169279790950307  7.1336658819270209   T   T   T
  7.1294228095028958  6.0593371868723889 12.8425195661010108   T   T   T
  7.1383077190000002 10.0950922149999993  1.4276616200000001   F   F   F
  7.1244090498954620 10.0443994341391036  7.1261812890936431   T   T   T
  7.1480330981836309 10.0710317873915027 12.8755783909273340   T   T   T
 12.8489542009999997  2.0190185509999998  1.4276616200000001   F   F   F
 12.9571279275960158  1.9403135936551357  7.1343136904509281   T   T   T
 12.8502802564304019  2.0175007183599569 12.8406945855504908   T   T   T
 12.8489542009999997  6.0570554730000001  1.4276616200000001   F   F   F
 12.8379998396596964  6.0377596914541218  7.1480102308369791   T   T   T
 12.8535353430079198  6.0625254246121214 12.8582174338821371   T   T   T
 12.8489542009999997 10.0950922149999993  1.4276616200000001   F   F   F
 12.8494195744190751 10.0994348878501299  7.1413677736445544   T   T   T
 12.8493425404512021 10.0981986966028927 12.8438278794770593   T   T   T
  4.2829847340000002  2.0190185509999998  4.2829847340000002   F   F   F
  4.1806957304119283  2.0919799593931914  9.9970591960503565   T   T   T
  4.2774344783794556  2.0262882748681785 15.6400984210348604   T   T   T
  4.2829847340000002  6.0570554730000001  4.2829847340000002   F   F   F
  4.2821473110568391  6.0756408805828768  9.9817388251272892   T   T   T
  4.2820412438396920  6.0537995168281435 15.6421615108227545   T   T   T
  4.2829847340000002 10.0950922149999993  4.2829847340000002   F   F   F
  4.2934999724226905 10.1822690151758852 10.1072928833019855   T   T   T
  4.2749088401194442 10.0781908017965218 15.6900240420401254   T   T   T
  9.9936307049999993  2.0190185509999998  4.2829847340000002   F   F   F
 10.0359709587257733  2.0367093652075834  9.9748523659287471   T   T   T
  9.9966910392284323  2.0170704802568187 15.6460728505421152   T   T   T
  9.9936307049999993  6.0570554730000001  4.2829847340000002   F   F   F
 10.0001899727402570  6.0927894599583006 10.0300767138117219   T   T   T
  9.9937581734892884  6.0545616868703247 15.6514553698463619   T   T   T
  9.9936307049999993 10.0950922149999993  4.2829847340000002   F   F   F
  9.9858158473432415 10.1057887167337217  9.9921826945125520   T   T   T
  9.9964791958410562 10.0940894969191781 15.6479589424773877   T   T   T
 15.7042776970000002  2.0190185509999998  4.2829847340000002   F   F   F
 15.6907450839472311  2.0160680353630465  9.9916002638171069   T   T   T
 15.7039128463224813  2.0184209244031215 15.6472183912702967   T   T   T
 15.7042776970000002  6.0570554730000001  4.2829847340000002   F   F   F
 15.6917522007393977  6.0462595918032065  9.9957016989110734   T   T   T
 15.7052277952559898  6.0588793874310154 15.6484896598856462   T   T   T
 15.7042776970000002 10.0950922149999993  4.2829847340000002   F   F   F
 15.7172607040161108 10.0850879733781831 10.0036284408158078   T   T   T
 15.7034083073590960 10.0957274913024904 15.6459809171117605   T   T   T
  2.8553232409999998  0.0000000000000000  0.0000000000000000   F   F   F
  2.8438293621574728  0.0270539209105417  5.6988191562836832   T   T   T
  2.8636120195333095  0.0363976133872167 11.4751158279800300   T   T   T
  2.8553232409999998  4.0380371029999997  0.0000000000000000   F   F   F
  2.8627496451162613  4.0360474080770246  5.7211334825081748   T   T   T
  2.8314876029520182  4.0673027987345431 11.4623425209768364   T   T   T
  2.8553232409999998  8.0760742049999994  0.0000000000000000   F   F   F
  2.8514775826987493  8.0673766156420648  5.7374832889187912   T   T   T
  2.8647232314590783  8.0887386271497483 11.4323866245321266   T   T   T
  8.5659694670000004  0.0000000000000000  0.0000000000000000   F   F   F
  8.5351822962937227 -0.0335574060576457  5.7144056223195117   T   T   T
  8.5499255024462641  0.0064190174447722 11.4455153953979440   T   T   T
  8.5659694670000004  4.0380371029999997  0.0000000000000000   F   F   F
  8.5838168959520988  4.0090871096229934  5.7211936683887208   T   T   T
  8.5980563444161522  4.0554296007755877 11.4725101593400876   T   T   T
  8.5659694670000004  8.0760742049999994  0.0000000000000000   F   F   F
  8.5742059250608769  8.0580316450283238  5.7210547364418352   T   T   T
  8.5562859463466925  8.0877786246702907 11.4552552845268849   T   T   T
 14.2766154380000003  0.0000000000000000  0.0000000000000000   F   F   F
 14.3071866632076929 -0.0284825635009419  5.7105612450611805   T   T   T
 14.2750320812230687  0.0022630880366525 11.4542556276362379   T   T   T
 14.2766154380000003  4.0380371029999997  0.0000000000000000   F   F   F
 14.2597539060660505  4.0228422867656395  5.7266954848880465   T   T   T
 14.2743153736593982  4.0373404773092032 11.4569063719133926   T   T   T
 14.2766154380000003  8.0760742049999994  0.0000000000000000   F   F   F
 14.2729620161174111  8.0704791046661519  5.7217292929083836   T   T   T
 14.2826536845981487  8.0869081994159195 11.4597965324832565   T   T   T
  0.0000000000000000  0.0000000000000000  2.8553232409999998   F   F   F
  0.0219317000980976 -0.0105866224032871  8.5806477893025423   T   T   T
 -0.0010986366246415  0.0005517308617355 14.3245445792105102   T   T   T
  0.0000000000000000  4.0380371029999997  2.8553232409999998   F   F   F
 -0.0242514739985546  4.0310752679321613  8.5745341797494881   T   T   T
 -0.0015302892281246  4.0411014148246025 14.3265453428690321   T   T   T
  0.0000000000000000  8.0760742049999994  2.8553232409999998   F   F   F
 -0.0411026604535677  8.0606331086275382  8.5781394039031298   T   T   T
 -0.0010991856865185  8.0799559542901598 14.3250534824950524   T   T   T
  5.7106464819999996  0.0000000000000000  2.8553232409999998   F   F   F
  5.6902617596819836 -0.0872612610332227  8.4679922266321235   T   T   T
  5.7129239395321463 -0.0119300121372910 14.3975635049854134   T   T   T
  5.7106464819999996  4.0380371029999997  2.8553232409999998   F   F   F
  5.7129948249885611  4.0223866442096670  8.5919269118625312   T   T   T
  5.7105326791694591  4.0356552002239710 14.3179410226781858   T   T   T
  5.7106464819999996  8.0760742049999994  2.8553232409999998   F   F   F
  5.8160112180298054  7.9995571822946392  8.5822966869323558   T   T   T
  5.7098703503247750  8.0691408813895933 14.3306583365711280   T   T   T
 11.4212929630000009  0.0000000000000000  2.8553232409999998   F   F   F
 11.4170371026264768  0.0177171396496365  8.5633212052911105   T   T   T
 11.4216271300539418 -0.0001282831219869 14.3213371942429841   T   T   T
 11.4212929630000009  4.0380371029999997  2.8553232409999998   F   F   F
 11.4347900088079193  4.1172191636786479  8.6854714098289492   T   T   T
 11.4220770406231580  4.0368534873973676 14.3412105459255361   T   T   T
 11.4212929630000009  8.0760742049999994  2.8553232409999998   F   F   F
 11.4328753073230960  8.0785813083265854  8.5777874104842109   T   T   T
 11.4225958270272034  8.0800923702900072 14.3263118905462274   T   T   T
  1.4276616200000001  2.0190185509999998  4.2829847340000002   F   F   F
  1.3897170359646014  2.0286853328917958  9.9914986915322590   T   T   T
  1.4236912192301030  2.0192736945997480 15.6481688943118655   T   T   T
  1.4276616200000001  6.0570554730000001  4.2829847340000002   F   F   F
  1.3897213209541126  6.0380965836268228 10.0037777169099780   T   T   T
  1.4278786747068299  6.0540606173427163 15.6463614341260762   T   T   T
  1.4276616200000001 10.0950922149999993  4.2829847340000002   F   F   F
  1.4536090966932298 10.0898400648593416  9.9895073370613847   T   T   T
  1.4236109582666119 10.0932873327200294 15.6514650890230556   T   T   T
  7.1383077190000002  2.0190185509999998  4.2829847340000002   F   F   F
  7.2401903023165124  2.0859869896479615  9.9939917715239801   T   T   T
  7.1447323167816661  2.0245209439811434 15.6397690212204470   T   T   T
  7.1383077190000002  6.0570554730000001  4.2829847340000002   F   F   F
  7.1699012993391138  6.0204253768949867 10.0000180116497024   T   T   T
  7.1366022533730549  6.0538279902874113 15.6451925217036649   T   T   T
  7.1383077190000002 10.0950922149999993  4.2829847340000002   F   F   F
  7.1027544877369575 10.0964824817850793  9.9964518024062485   T   T   T
  7.1479962827876191 10.0794131702976912 15.6709930295883897   T   T   T
 12.8489542009999997  2.0190185509999998  4.2829847340000002   F   F   F
 12.8531532972505040  2.0241920540091054  9.9726387616309218   T   T   T
 12.8496135745283162  2.0162242873998886 15.6456530340991957   T   T   T
 12.8489542009999997  6.0570554730000001  4.2829847340000002   F   F   F
 12.8619173738204182  6.0907724017956300 10.0273038754046340   T   T   T
 12.8502602384897671  6.0592153079910833 15.6496668328976085   T   T   T
 12.8489542009999997 10.0950922149999993  4.2829847340000002   F   F   F
 12.8428905273205221 10.1014957186405336  9.9923694843278899   T   T   T
 12.8498072945836785 10.0954109496259470 15.6454712491596712   T   T   T
  4.2829847340000002  2.0190185509999998  1.4276616200000001   F   F   F
  4.2767811906574940  2.0119449461980601  7.1613371609557372   T   T   T
  4.2925310524788687  2.0199494116983683 12.8389846139615535   T   T   T
  4.2829847340000002  6.0570554730000001  1.4276616200000001   F   F   F
  4.2877565427214517  6.0712589451555461  7.1551567892806753   T   T   T
  4.2866374440730439  6.0562289516926562 12.8371485120572970   T   T   T
  4.2829847340000002 10.0950922149999993  1.4276616200000001   F   F   F
  4.2676801304736838 10.1379241088962022  7.0260211981257781   T   T   T
  4.2740503718851102 10.0825263226005646 12.9111077180512037   T   T   T
  9.9936307049999993  2.0190185509999998  1.4276616200000001   F   F   F
  9.8838237026539222  1.9391175142794428  7.1375382489161394   T   T   T
  9.9943739232832343  2.0147094377537353 12.8400349678850141   T   T   T
  9.9936307049999993  6.0570554730000001  1.4276616200000001   F   F   F
 10.0233524394731504  6.0415691664059450  7.1382368464774162   T   T   T
  9.9953875830565533  6.0713818473650747 12.8624568382395736   T   T   T
  9.9936307049999993 10.0950922149999993  1.4276616200000001   F   F   F
  9.9885645557971543 10.1058115650349833  7.1429424264186361   T   T   T
  9.9905840092142579 10.1024047672944732 12.8424179795267399   T   T   T
 15.7042776970000002  2.0190185509999998  1.4276616200000001   F   F   F
 15.7461733616481023  1.9998369940774194  7.1412127576271462   T   T   T
 15.7015405466485767  2.0147067440917374 12.8459266984706773   T   T   T
 15.7042776970000002  6.0570554730000001  1.4276616200000001   F   F   F
 15.6856376342573434  6.0474974470545124  7.1357481961631386   T   T   T
 15.7048154254374914  6.0587497173448925 12.8479475694402421   T   T   T
 15.7042776970000002 10.0950922149999993  1.4276616200000001   F   F   F
 15.7145226514755496 10.0831458856267666  7.1433418544859961   T   T   T
 15.7059137461125626 10.0987795833587768 12.8455896126643427   T   T   T
  4.2850134005059921  9.0830553786572992  8.5709115147134423   T   T   T
  5.7060218699898035  1.0048805350857195 10.0008989747093597   T   T   T
 11.4236783198870100  3.0121052329221771  7.1603604677179646   T   T   T
