Fe  H 
 1.0000000000000000
    14.2840000000000007    0.0000000000000000    0.0000000000000000
     0.0000000000000000   14.2840000000000007    0.0000000000000000
     0.0000000000000000    0.0000000000000000   14.2840000000000007
 Fe  H  
 256   4
Cartesian
  0.0153222350317320  0.0088128888859363  0.0049607189280056
 -0.0066238777561851  1.7862971932767395  1.7892197187514478
  1.7894858381825616 -0.0079066769387550  1.7825275285165156
  1.7892571933118739  1.7931466615818470 -0.0256728658968360
  0.0004774479994896  0.0026589852577756  3.5638879201485554
 -0.0085383205558729  1.7983187083085732  5.3624355194104085
  1.8012488302053820  0.0109103257716886  5.3710248906034908
  1.8132728727803709  1.7868054618360785  3.5726495671245138
  0.0343502523248059  0.0231317753072762  7.1506633913970710
 -0.0065450820955729  1.7910042155856403  8.9195548454298876
  1.7904369225708219 -0.0005316103988701  8.9200303716515190
  1.7817209299214183  1.7840010274486329  7.1675285865295040
 -0.0084249952981125 -0.0093754038926244 10.7179538813689046
  0.0186116188517234  1.7953290121853009 12.4873454921070852
  1.7990567989007469  0.0258607145913277 12.4923979388358237
  1.7977750914312252  1.7856102828561440 10.7209365924912206
 -0.0034259577594036  3.5860068945796875 -0.0018161128367478
  0.0028007497754713  5.3509191978615060  1.7686731294264180
  1.8056955105326025  3.5729102595535318  1.7753150144518250
  1.7788658534814537  5.3573854915710308  0.0094741732727962
 -0.0089859409716913  3.5674971401992153  3.5817611311142556
  0.0213829647984957  5.3430338207264958  5.3567513267897615
  1.7819868150235114  3.5851122429787594  5.3630216836055089
  1.7843603898793168  5.3697335810758613  3.5730844559836643
 -0.0000804633370321  3.5772280493323900  7.1379963957798216
  0.0065665607039024  5.3622475995041325  8.9321260741328334
  1.8038494883574858  3.5638000197091921  8.9392521289263343
  1.7919297005530426  5.3503328967493617  7.1212508342938099
  0.0039658726383358  3.5534695708313131 10.7154633339089038
  0.0048141411503829  5.3521424379215015 12.5125404739056183
  1.7865835549056954  3.5651070367210864 12.4913827982582504
  1.7985795003789293  5.3446136606645949 10.7176855128974147
  0.0265807895762253  7.1224923777239981 -0.0029651292573443
  0.0046841016732733  8.9250010148447121  1.7838643259489717
  1.7936590803688559  7.1419907122385888  1.7783849805663023
  1.8010609317026331  8.9042434045617114 -0.0030687881833013
 -0.0007958743192387  7.1408273784227969  3.5754024775336477
 -0.0121128023243021  8.9397527910587193  5.3447228755039262
  1.8065177149578155  7.1352241098661429  5.3549039843561159
  1.8050247293591213  8.9318389475318938  3.5786969365313590
  0.0091397877117102  7.1308334784666485  7.1652681191749723
  0.0476413681738837  8.9193352357334508  8.9182832569463741
  1.7828558533486127  7.1468433144206251  8.9220501656416769
  1.7935735877047334  8.9153696105161906  7.1490092833050589
  0.0032496841303767  7.1421578626039661 10.7103353315854122
  0.0137906822052101  8.9184690371171023 12.4794986585197680
  1.7910798001208157  7.1197613317916240 12.5111387000476721
  1.7816905333411488  8.9435025857456480 10.7056319894758563
  0.0071209451291298 10.7175941798370165 -0.0025688528773486
  0.0548263128261283 12.5131398673065242  1.7629819315946145
  1.7822525430256979 10.7208357107290837  1.7957946655196262
  1.7961035088095330 12.5028784228731897  0.0078612274585176
  0.0285481792855528 10.7072630761105305  3.5796608094459281
  0.0197157146736364 12.5100951179772082  5.3483768684934052
  1.8108082410130517 10.7161467904727363  5.3462147462900793
  1.7813846478758466 12.4771465604610583  3.5606441704258063
 -0.0013943185489427 10.6995091940804539  7.1541434121115879
  0.0010380344757003 12.5041621372869951  8.9438974021337732
  1.7757368749188727 10.7081216019750425  8.9303515845634056
  1.8037281293000123 12.5131010167677275  7.1355939588375836
  0.0424168379146163 10.7204358705627243 10.7215063547920639
 -0.0026986501269072 12.4842369503051671 12.4841090644831105
  1.7879693197676745 10.7121996223891234 12.4921550603065974
  1.7833166387623873 12.5038506970741228 10.7189721852775808
  3.5774992398287599 -0.0103577345342957  0.0057792089553450
  3.5734461473692050  1.7995577176877808  1.7831726367660854
  5.3394705612635436  0.0101795093687597  1.7747887442057355
  5.3470197420534067  1.7857023863407167  0.0155693454802469
  3.5793640081350975  0.0214933425822195  3.5798948011207616
  3.5793505375655759  1.7805173343976100  5.3389556279769561
  5.3447184143425419  0.0033366925960710  5.3680487696530221
  5.3414330284111902  1.7875617256294596  3.5696728817583909
  3.5688702478373537 -0.0073941433429764  7.1381903760144718
  3.5601328346921948  1.7870484697798306  8.9346010651590504
  5.3640074678422085  0.0148364285388240  8.9249888855941126
  5.3572260241593908  1.7789535873601046  7.1370712878019491
  3.5627743765322104  0.0143163046544893 10.7174377358532471
  3.5628132080658936  1.7815266828951508 12.5042963108530607
  5.3601784733652016 -0.0115862764386485 12.4930342396662528
  5.3650113140752849  1.7843827541818236 10.7091498593013874
  3.5724517902419772  3.5550650137841040 -0.0002755852165606
  3.5649360751573336  5.3548311156526900  1.8032710010643256
  5.3476331926132543  3.5658291825737383  1.7929864099013950
  5.3645517830481664  5.3586432494064677 -0.0158369476091422
  3.5768928917037317  3.5697446249946010  3.5653277079898884
  3.5686138181887936  5.3504688222605266  5.3631598589649476
  5.3386907513648634  3.5776927006395378  5.3562430159264531
  5.3443834081777082  5.3468678878284486  3.5636174403754244
  3.5753999252287598  3.5757131330359946  7.1438940104874185
  3.5765181149024752  5.3528683039244527  8.9265300027715124
  5.3650420210812477  3.5792915134987933  8.9271360095118517
  5.3478833171342233  5.3443860401752898  7.1653093816081279
  3.5596783471120084  3.5865197074711075 10.7145504928362687
  3.5748852166965590  5.3494930581102613 12.4781674664902642
  5.3554142706019583  3.5787811927145201 12.4987338087073425
  5.3548840934011235  5.3509196951271534 10.7070845264835182
  3.5695449333474332  7.1525973511413730  0.0022789465210932
  3.5663328639988747  8.9187774579226158  1.7666170715030509
  5.3488712435150862  7.1235273360205378  1.7731692152525458
  5.3503284069263266  8.9200425171547071 -0.0055248741977165
  3.5588454733783412  7.1292901040059551  3.5648956984010201
  3.5511243761569613  8.9190556813863164  5.3561700993674473
  5.3534268817554835  7.1507076206131046  5.3566307501982262
  5.3630275864475889  8.9349484050443841  3.5832853463297245
  3.5666317138094579  7.1510945390535250  7.1401213622074033
  3.5898589914889127  8.9198514478090587  8.9353339817123221
  5.3386680181778399  7.1277283654730734  8.9321821331932796
  5.3484332514348871  8.9202733747386116  7.1434371041067353
  3.5871961973947979  7.1388012364596962 10.7150218665011199
  3.5829138158335869  8.9274771279737575 12.5017302627408355
  5.3524368199389531  7.1582183599418983 12.5023611029778063
  5.3335208925128761  8.9171972075158017 10.7125382058489222
  3.5808329588889753 10.7052060066222658 -0.0074152982680644
  3.5914573219156600 12.5103135663563023  1.7788348579091988
  5.3415382314707580 10.7176428740464651  1.7867967769993358
  5.3410942137785726 12.5017715831625402 -0.0057533789160787
  3.5682264774572552 10.7137037942220257  3.5748582104573119
  3.5705729009753093 12.4983993549457235  5.3685668171779346
  5.3622465269514210 10.7055099279464176  5.3417751109116995
  5.3403197122200323 12.4943028000486791  3.5669277006179985
  3.5711401681444643 10.7370523282490282  7.1516908481797676
  3.5734677962826296 12.4900572523851849  8.9185305633389831
  5.3233665037375983 10.7183814437319569  8.9300562500217868
  5.3421782055011917 12.5112237976979923  7.1547982211165708
  3.5921497806191152 10.7120066155388596 10.7136800161941910
  3.5754495913087214 12.4965933709063179 12.4964419667349311
  5.3452225460047966 10.7237606738062308 12.4998674530118574
  5.3518110056336754 12.4879716753010879 10.7273025278003811
  7.1278163102319221  0.0134149359893960 -0.0257944882255664
  7.1328667440368285  1.7923258597375851  1.7898427154281846
  8.9172344987993117 -0.0035907766136511  1.7744197639239039
  8.9270778978707206  1.7965627676826996  0.0044754860899639
  7.1569855972138088  0.0043416119808515  3.5691149186091136
  7.1571039031203574  1.7909816046037625  5.3678260360093315
  8.9222830990518229 -0.0080562440026881  5.3443552038916513
  8.8608021258561980  1.8030907998520864  3.5702131997525566
  7.1102281510587568  0.0170712012142409  7.1595103506038598
  7.1313453424852149  1.7846585838339424  8.9274889394052455
  8.9254334329184530 -0.0074529658254362  8.9365459881639424
  8.9218321067618653  1.7980766261205066  7.1337898327634761
  7.1362552351830493  0.0013070941385399 10.7186825085610469
  7.1351243558787099  1.7797293575567250 12.4831436833632434
  8.8950994111596895  0.0215978336109397 12.4963704025057289
  8.9359679019851690  1.7939542434973510 10.7186690923095060
  7.1448992395999902  3.5907994135091026 -0.0088434883831877
  7.1270316860740142  5.3579690232465671  1.7630957655174613
  8.9014106010480312  3.5854510423483275  1.7583753250340211
  8.9122235587173648  5.3443888117332685 -0.0076765028048701
  7.1396567107408844  3.5619302960964130  3.5649071554758840
  7.1394664035529400  5.3537410607527960  5.3603172843019902
  8.9046980449424566  3.5714279187436464  5.3810651336292477
  8.9407991176675310  5.3559635866367579  3.5782970003109789
  7.1508079786867986  3.5788584538009380  7.1447830914515116
  7.1201406783376795  5.3452042012527272  8.9360773088137186
  8.9265276088543377  3.5650165853647824  8.9357785963188388
  8.9130457247580246  5.3450470189957615  7.1340881432256440
  7.1189304426869269  3.5610821487996365 10.7031559246660297
  7.1436762429849683  5.3488242012786982 12.5103848918448843
  8.9371204129953039  3.5734910728268665 12.4987347247536000
  8.9264505843911408  5.3640652782433760 10.7110903650412936
  7.1161690975091885  7.1265129184698752 -0.0085470101819955
  7.1390167793925894  8.9261201375217496  1.7875329962815616
  8.9219185330040514  7.1386005213469437  1.7844829090524388
  8.9395101987430969  8.9389859166980834  0.0091499744852054
  7.1322043225323188  7.1428408263336154  3.5729639402887567
  7.0883828470539259  8.9082148149142988  5.3697206395259691
  8.9026612992072263  7.1015578192301687  5.3713141412616965
  8.8582479391002842  8.8586115040115896  3.5131303381204502
  7.1307906886547423  7.1363259234887995  7.1274696743637191
  7.1478046606801726  8.9437765763163970  8.9314228202570991
  8.9331844705325860  7.1422184287622974  8.9436203108682246
  8.9043200175736104  8.9132320224033048  7.1751089134001225
  7.1480079110725336  7.1429995688155730 10.7149272553330928
  7.1377835167447428  8.9181417366150111 12.4903902462874079
  8.9212696476015729  7.1388911063155200 12.4792868456819406
  8.8859382048845958  8.9213029617643045 10.7314460916938170
  7.1407267026695571 10.7155901518158583  0.0033506660745695
  7.1458425513158783 12.4776069283319906  1.7968223988521461
  8.8901022958305234 10.7097253639300813  1.7454201091465884
  8.9110555998253194 12.5081518347374310  0.0006380450452321
  7.1108218862006582 10.7215806359628250  3.5682648035978088
  7.1288885839132679 12.4971986098482777  5.3533150459299490
  8.8567772560074776 10.7656674421290379  5.4189430117259594
  8.8859568120379446 12.5297297154591067  3.5785862938754120
  7.1367332992000412 10.6982138815548158  7.1488532474347020
  7.1345373928845790 12.5152968120901580  8.9346943898797129
  8.8988670557715555 10.7141233401779434  8.9194887740660587
  8.9311497718751607 12.4855488974330786  7.1602979159534570
  7.1493519387381266 10.7135140010423804 10.7161852991751001
  7.1224697374796699 12.5173368624431749 12.5068468263407482
  8.9249118439318238 10.7028924834462504 12.4755335900408664
  8.9286702086444780 12.5020212592125670 10.7017863124609285
 10.7195810059784939  0.0112959038639189  0.0013373680159137
 10.7107617289050516  1.7840147958011578  1.7279560039700606
 12.5273032199497703  0.0292673510218555  1.7555465970506718
 12.4968195495339618  1.7861793735949842  0.0103104617899151
 10.7046926004306453 -0.0532773428502281  3.5772640516984984
 10.7117208780767843  1.7984276041816289  5.4196487823863837
 12.5144803757446361  0.0005123480058216  5.3599609170414126
 12.5595680365257145  1.7851132829776173  3.5712958939102402
 10.7144268387839983  0.0110537581552670  7.1265869435033302
 10.7079366368562887  1.8102586734915196  8.9400757296697240
 12.5024005576893380 -0.0033400816256423  8.9475051896196263
 12.5001831447510448  1.7975104462166103  7.1431007433004376
 10.7090299512872598 -0.0038372978194587 10.6977806577111085
 10.7062291696439953  1.8000786852536119 12.4831596025191001
 12.4934789470454231 -0.0054020676975259 12.4907873528821103
 12.5088276041895714  1.8094871939207631 10.7144524271782959
 10.7014281506876028  3.5679043017941283  0.0126111161125892
 10.7133935860269585  5.3299372342223172  1.7890940653754315
 12.5198606699220694  3.5991975808699590  1.7674532422386793
 12.5182810695659832  5.3463395386730275 -0.0043131655775464
 10.7131198651485562  3.6218330765926341  3.5679881729623335
 10.7018440567791853  5.3466062138786965  5.3381103377278638
 12.5230952222605278  3.5856324472379510  5.3751643294350426
 12.4960248994456258  5.3321655670271433  3.5707010083923465
 10.7151401224813156  3.5635380853307455  7.1425392842042621
 10.7193050451095253  5.3672572380290910  8.9416779636267574
 12.5045978051536810  3.5540658121810846  8.9298700966544882
 12.5173984466624884  5.3467552903320144  7.1609290870619109
 10.7058035291618623  3.5518397616189308 10.7194724166087063
 10.7117549128261444  5.3604730370593741 12.4959056498455183
 12.5121241424667105  3.5671814867645533 12.4885050051238551
 12.4822955574167906  5.3679534238949023 10.7143621572664554
 10.7131497419175581  7.1423886541622608 -0.0029499462790879
 10.7119098809200111  8.8890478542307712  1.7697001016177158
 12.4957573794800396  7.1523434083102133  1.7981350597391899
 12.4901070984886466  8.9340229324400955 -0.0122380650366503
 10.7191962291715033  7.1283063744374902  3.5579904896842964
 10.7716112488938816  8.8635361854265931  5.4325580601340668
 12.5033951121379996  7.1383565866943908  5.3561389702458602
 12.5326297182724904  8.8942299237043390  3.5577888536947970
 10.7111616385652333  7.1373944986002806  7.1498970224572531
 10.6601415359392639  8.8746383362829189  8.8744468859833407
 12.5151457971991906  7.1004149798508269  8.9229976510576687
 12.5092490465320800  8.9177623610741854  7.1359002143929109
 10.7078075132150126  7.1064350430271270 10.7245980243793575
 10.7110071818703041  8.9206506113997488 12.5097191840640285
 12.4963383222249096  7.1371941634503875 12.4874803819424205
 12.5596175309246441  8.8723038270249486 10.7632254327153536
 10.7055296867476262 10.6973149911520231 -0.0257445893305952
 10.6489378107520025 12.5654986363382424  1.7148196708555465
 12.5717268517957397 10.6568737629714292  1.7200209653794547
 12.5132856851999144 12.5137814905808327 -0.0392643191775594
 10.7131695533381528 10.7067625168135638  3.5594236395480920
 10.7176249389209435 12.5306776946341873  5.3880671532475457
 12.5261213291535984 10.7018251590306885  5.3897488813490293
 12.5752297171336025 12.5655552829675479  3.6270445245799920
 10.7179605080619460 10.7361859702901885  7.1440023842355629
 10.7007923180527769 12.5342055615065924  8.9355757831572102
 12.5590163024824086 10.7649948245286957  8.8921736902703366
 12.4860956910485328 12.4868997222361156  7.1459431351713212
 10.6605947158097560 10.7657791221374151 10.7629709511978486
 10.7277574703318201 12.4940630134052952 12.4936160210713982
 12.4970553238189481 10.7241784501514026 12.5266600033060644
 12.5106936531438375 12.5348994483539720 10.7109325832646505
  9.7775570581921212  9.7679950439066694  4.5061562044334469
 10.7111161168463980  1.7831548147199168  3.5726696975102947
 11.6009965289690822  9.8115088437924172  9.8271888141171466
 11.6542467457270611 11.6540948481278921  2.6282703267793668
