Cr Co Ni  H 
 1.0000000000000000
    14.1120004653999995    0.0000000000000000    0.0000000000000000
     0.0000000000000000   14.1120004653999995    0.0000000000000000
     0.0000000000000000    0.0000000000000000   32.0000000000000000
 Cr  Co  Ni  H  
  85  86  85   4
Selective dynamics
Cartesian
 10.5220927592298992  3.4910089681671050  7.6275502767374599   T   T   T
  8.8200002909999995  3.5280001159999999  5.2920001750000001   F   F   F
 10.5840003490000001  5.2920001750000001  5.2920001750000001   F   F   F
  0.0000000000000000  7.0560002329999998  0.0000000000000000   F   F   F
  8.7052893118845915  5.6694476843800707  7.6208439875057410   T   T   T
 12.4900322676943833  1.7803841351954286  7.4730223703970164   T   T   T
  5.2920001750000001  1.7640000579999999  0.0000000000000000   F   F   F
  3.2760560984916895  4.2499847422747683 11.8393312362514589   T   T   T
  5.2920001750000001  8.8200002909999995  0.0000000000000000   F   F   F
 11.1536452661325018  1.5721450190785331 14.1461612309817522   T   T   T
  6.8166719108234153  5.9351146626245646 10.1319729186489909   T   T   T
 10.9716036116862430  5.2500139860672022  9.8007179274216512   T   T   T
  8.8200002909999995 12.3480004070000007  3.5280001159999999   F   F   F
  6.8689901099386272  3.3828262268214102 11.9379330206884493   T   T   T
  8.8200002909999995 10.5840003490000001  1.7640000579999999   F   F   F
  8.6439170067710833  1.5280084000287384  7.6597176492881793   T   T   T
  3.5280001159999999  7.0560002329999998  0.0000000000000000   F   F   F
  8.8200002909999995  5.2920001750000001  3.5280001159999999   F   F   F
  0.2176521881709118  1.6168544695313876  9.4721849183350333   T   T   T
 10.4237154236294760 10.5373045903267091  7.3912651987942395   T   T   T
  7.0560002329999998  7.0560002329999998  3.5280001159999999   F   F   F
  7.0560002329999998  0.0000000000000000  0.0000000000000000   F   F   F
  3.5280001159999999  1.7640000579999999  5.2920001750000001   F   F   F
  4.6119662852218042  0.5412252793316016 14.2637593438873118   T   T   T
 10.9891189381308028  7.3526811332264348  7.6206695697213247   T   T   T
 10.5840003490000001  7.0560002329999998  3.5280001159999999   F   F   F
 12.3480004070000007 10.5840003490000001  5.2920001750000001   F   F   F
 -0.4803819162653368  6.0378552299815693 14.7389550809671501   T   T   T
  6.6241497528189699  0.3642018202579212 11.9020262591967771   T   T   T
 12.3480004070000007 12.3480004070000007  3.5280001159999999   F   F   F
 12.3480004070000007  1.7640000579999999  0.0000000000000000   F   F   F
  5.2920001750000001  7.0560002329999998  5.2920001750000001   F   F   F
  7.0560002329999998  1.7640000579999999  5.2920001750000001   F   F   F
  5.2920001750000001  1.7640000579999999  3.5280001159999999   F   F   F
 12.5553579616786060 12.4394227653981186 11.3635183702410156   T   T   T
  3.5280001159999999  8.8200002909999995  1.7640000579999999   F   F   F
  8.8200002909999995  8.8200002909999995  3.5280001159999999   F   F   F
 10.5840003490000001  0.0000000000000000  0.0000000000000000   F   F   F
  5.2920001750000001  5.2920001750000001  0.0000000000000000   F   F   F
  8.6211753250567931 -0.3673965718999207  9.7287202997921742   T   T   T
  7.0560002329999998  1.7640000579999999  1.7640000579999999   F   F   F
  3.5280001159999999 10.5840003490000001  3.5280001159999999   F   F   F
  7.0606450204844213  1.8354506131292139 14.3713529060568312   T   T   T
 12.3480004070000007  0.0000000000000000  5.2920001750000001   F   F   F
  3.5280001159999999  3.5280001159999999  3.5280001159999999   F   F   F
  7.0560002329999998  5.2920001750000001  5.2920001750000001   F   F   F
  7.0560002329999998 10.5840003490000001  3.5280001159999999   F   F   F
  8.8200002909999995  0.0000000000000000  5.2920001750000001   F   F   F
  8.8200002909999995  3.5280001159999999  1.7640000579999999   F   F   F
  3.7028738756251163 12.0901656207726660  9.5467401490098940   T   T   T
  8.6127693876954261  3.5163194468568335  9.6858876145170054   T   T   T
  3.6597842520837092  5.2657706681259295  9.3724919718277437   T   T   T
  5.2920001750000001  5.2920001750000001  3.5280001159999999   F   F   F
  1.7640000579999999  7.0560002329999998  5.2920001750000001   F   F   F
  7.2492381400060069  5.1035677520301670 14.4001939684961417   T   T   T
  3.5280001159999999  5.2920001750000001  5.2920001750000001   F   F   F
  0.2648362937148083 -0.3434746736009987  7.5461098661127597   T   T   T
  0.0000000000000000  0.0000000000000000  0.0000000000000000   F   F   F
 -0.0334665229164990  1.3108695631378433 14.2015046031730687   T   T   T
  6.6768242942362628 12.6214808141217407 14.3182714961024136   T   T   T
  9.0905386994801027  5.2365441704291955 11.9851840551166759   T   T   T
  1.7640000579999999  8.8200002909999995  3.5280001159999999   F   F   F
  5.2920001750000001 12.3480004070000007  3.5280001159999999   F   F   F
  1.7640000579999999  1.7640000579999999  3.5280001159999999   F   F   F
  1.7640000579999999  3.5280001159999999  1.7640000579999999   F   F   F
 12.3480004070000007  0.0000000000000000  1.7640000579999999   F   F   F
  7.2289563521784066 10.5444935269199380  7.3563201978902226   T   T   T
 10.5840003490000001  1.7640000579999999  5.2920001750000001   F   F   F
  6.6150044350941775 -0.2743987793589418  7.5885481004980457   T   T   T
  1.7640000579999999  0.0000000000000000  1.7640000579999999   F   F   F
 10.5840003490000001  1.7640000579999999  1.7640000579999999   F   F   F
  5.3395031667837030  5.2430602112691371  7.4168661040400128   T   T   T
 -0.0036110083916842  8.8492598696173417  9.3934983495395343   T   T   T
  7.0560002329999998  5.2920001750000001  1.7640000579999999   F   F   F
  1.7640000579999999 12.3480004070000007  3.5280001159999999   F   F   F
  8.8200002909999995  1.7640000579999999  0.0000000000000000   F   F   F
 10.4059779611412111 10.8821327728807393 11.4658008756282364   T   T   T
 10.5840003490000001  7.0560002329999998  0.0000000000000000   F   F   F
  0.0000000000000000  1.7640000579999999  5.2920001750000001   F   F   F
 10.5840003490000001 12.3480004070000007  1.7640000579999999   F   F   F
  1.7640000579999999 10.5840003490000001  5.2920001750000001   F   F   F
  5.5480901692740989  9.9323432517316999 13.7753724261334813   T   T   T
  0.6286689613877857  0.0297619956009254 11.7718941073759691   T   T   T
  3.6324665534731753  0.0412542039456102  7.4419829266774702   T   T   T
 11.1942904684870257  3.3246571187411318 11.9100886397628827   T   T   T
  1.5499735940216695  6.7873535371857070 13.2604170623297559   T   T   T
  5.2920001750000001  0.0000000000000000  5.2920001750000001   F   F   F
  0.1268955675576958 10.5709637515554178 11.5002603983564597   T   T   T
  3.5280001159999999  1.7640000579999999  1.7640000579999999   F   F   F
  3.1736425035032401  6.9012541925726056 11.3465796014240574   T   T   T
  1.5251089178132320  8.7271193179476061  7.2987044528522462   T   T   T
 12.3480004070000007  7.0560002329999998  5.2920001750000001   F   F   F
  0.3028507613327492 12.0404258701315889 13.3996699821896357   T   T   T
  8.8253569861770274 -0.0016529259723537 13.5445660426249859   T   T   T
 12.3530014084226547 10.6424282994944583 13.5052114173719726   T   T   T
  4.8474300663835885  3.4058038979774912 13.8422632143148121   T   T   T
 12.4380727609499200  5.1814945409975524  7.1506037463574303   T   T   T
  3.5280001159999999  8.8200002909999995  5.2920001750000001   F   F   F
 10.1846217573520512 12.0122410496993250 13.7523671499118088   T   T   T
  0.0000000000000000  0.0000000000000000  3.5280001159999999   F   F   F
  0.0000000000000000  5.2920001750000001  1.7640000579999999   F   F   F
  1.5304446201023898  6.7044142526206789  9.4075579853221036   T   T   T
  7.3097716855185002  8.7070147025103779  9.3703476948948836   T   T   T
  6.4723960367777469 12.1847350791555780  9.6048329601544591   T   T   T
 10.9279782956880620  4.9707194475314127 14.0608378979314512   T   T   T
  1.7640000579999999  0.0000000000000000  5.2920001750000001   F   F   F
  7.0560002329999998  3.5280001159999999  0.0000000000000000   F   F   F
  5.2920001750000001  7.0560002329999998  1.7640000579999999   F   F   F
  3.4324181871549317  7.2230938551353923  7.3380459620011775   T   T   T
 10.5840003490000001  3.5280001159999999  3.5280001159999999   F   F   F
  1.7640000579999999  1.7640000579999999  0.0000000000000000   F   F   F
  8.6730428300608420  8.9691802358193691 11.4763217478477149   T   T   T
 12.3480004070000007  5.2920001750000001  0.0000000000000000   F   F   F
  0.0000000000000000 10.5840003490000001  0.0000000000000000   F   F   F
  8.8200002909999995  7.0560002329999998  1.7640000579999999   F   F   F
  3.3771826489812034 -0.0184272780804886 11.7725183701186307   T   T   T
  0.0000000000000000  8.8200002909999995  5.2920001750000001   F   F   F
  3.9694195996545583 10.1562723417750558 11.5117591539998116   T   T   T
  5.3576159840087021  2.0634163196798312  7.3872048613702042   T   T   T
 10.6631350193228709 -0.0585182141868010  7.4751763959139668   T   T   T
  8.1168857775960941 12.2759515902714043 11.8097659659576841   T   T   T
  5.0392337858268146 11.9065660345533804  7.2455428671122473   T   T   T
  0.0000000000000000 10.5840003490000001  3.5280001159999999   F   F   F
  0.0000000000000000 12.3480004070000007  5.2920001750000001   F   F   F
  8.5414231788039956 10.8513360563286270  9.6367621022680847   T   T   T
  5.2920001750000001  3.5280001159999999  5.2920001750000001   F   F   F
  5.2920001750000001 10.5840003490000001  1.7640000579999999   F   F   F
 12.3480004070000007 10.5840003490000001  1.7640000579999999   F   F   F
  0.0000000000000000  5.2920001750000001  5.2920001750000001   F   F   F
  7.1958064754685092  3.5543444184479807  7.3386976692177610   T   T   T
  8.8200002909999995  7.0560002329999998  5.2920001750000001   F   F   F
  9.5348747800232196  6.9910467904537068 13.9806753919695659   T   T   T
  7.0560002329999998 12.3480004070000007  1.7640000579999999   F   F   F
  0.0000000000000000  8.8200002909999995  1.7640000579999999   F   F   F
  3.5743161523048461  5.6749188661184444 14.0023130472608930   T   T   T
  1.7640000579999999 12.3480004070000007  0.0000000000000000   F   F   F
  3.5280001159999999  7.0560002329999998  3.5280001159999999   F   F   F
  1.3249297924161740  4.1613275265359162 13.6603138241117179   T   T   T
  8.8200002909999995  8.8200002909999995  0.0000000000000000   F   F   F
  2.0818325933679969  2.1269459048163060 11.1357977771050614   T   T   T
  9.1237127361462065  7.1909186423705673  9.7578599859052382   T   T   T
  0.0643838531648863  8.8789332875543394 13.4434283528500451   T   T   T
 10.2198362923962911  9.3265268841044318 13.5684908191078790   T   T   T
 10.5840003490000001  3.5280001159999999  0.0000000000000000   F   F   F
  9.0490032419240443  1.6526971060533455 11.6981848315773593   T   T   T
 10.5932811254606101  1.4857403958065387  9.6343968352085074   T   T   T
  3.4674828390666956  8.2512877558196447 13.3591444949618303   T   T   T
  3.5280001159999999  3.5280001159999999  0.0000000000000000   F   F   F
  8.8200002909999995  5.2920001750000001  0.0000000000000000   F   F   F
  4.9773709768359033  0.2294208192866800  9.7808282712014112   T   T   T
  2.6382662812228355  2.0129825808680990 13.4266522324988884   T   T   T
  0.1612679638118329 10.8597850480354552  7.4348696236088863   T   T   T
  3.5280001159999999 12.3480004070000007  1.7640000579999999   F   F   F
  5.2920001750000001 10.5840003490000001  5.2920001750000001   F   F   F
  3.5280001159999999  5.2920001750000001  1.7640000579999999   F   F   F
  8.2079107116071288 10.5639951903805471 13.3623507380243893   T   T   T
 12.3480004070000007  8.8200002909999995  3.5280001159999999   F   F   F
  1.7470423019720618  5.4083281581298790  7.3536378246113818   T   T   T
  9.1447668898341465  3.1962485750854293 13.6599299456469865   T   T   T
  0.0000000000000000  7.0560002329999998  3.5280001159999999   F   F   F
  5.6248915027251316  3.4964970281891716  9.4488790651972767   T   T   T
  1.7640000579999999  7.0560002329999998  1.7640000579999999   F   F   F
  5.2920001750000001  8.8200002909999995  3.5280001159999999   F   F   F
  1.7640000579999999  8.8200002909999995  0.0000000000000000   F   F   F
  2.1891564935802093 11.8781768542328763 11.7327757381826210   T   T   T
 12.2664374038913664  0.9899679789382085 11.4923113748869241   T   T   T
 12.2945085269257763 -0.7838626083071734 13.7585120212028436   T   T   T
  7.7329424177958481  8.5251568589997042 14.5230598526180010   T   T   T
 10.5840003490000001 10.5840003490000001  0.0000000000000000   F   F   F
 10.5840003490000001  0.0000000000000000  3.5280001159999999   F   F   F
  1.5929524409985756  3.7860359009299960  9.2555103076943084   T   T   T
 10.5840003490000001  8.8200002909999995  5.2920001750000001   F   F   F
  0.0000000000000000 12.3480004070000007  1.7640000579999999   F   F   F
  5.2920001750000001  3.5280001159999999  1.7640000579999999   F   F   F
 10.6422835531585491 12.3200094314604325  9.3087298066206241   T   T   T
  7.0560002329999998  8.8200002909999995  1.7640000579999999   F   F   F
  0.0123104795596458  7.3370665816612242 11.4411110786168511   T   T   T
  1.7640000579999999 10.5840003490000001  1.7640000579999999   F   F   F
  6.8230807118339278  7.2313867494541118  7.3633755671285899   T   T   T
  1.7640000579999999  3.5280001159999999  5.2920001750000001   F   F   F
  2.1004799312998297 12.2084259401480555  7.3395729796230489   T   T   T
  5.3794989858648261  8.0834498003857860 11.6178629223758847   T   T   T
  3.3265283121570821 10.2318310542630417  7.4051440304234077   T   T   T
 10.3223372984574109 -0.4819187441438419 11.6975423864129660   T   T   T
 12.3480004070000007  7.0560002329999998  1.7640000579999999   F   F   F
  8.8098118787302067  8.5049937399044531  7.2721487174105111   T   T   T
 12.3480004070000007  1.7640000579999999  3.5280001159999999   F   F   F
  2.1686273799421945  0.0021700438751744  9.5791290722976790   T   T   T
 12.5330295919116494  5.6188095768111017 12.1973308323986682   T   T   T
  8.8200002909999995 12.3480004070000007  0.0000000000000000   F   F   F
 12.3480004070000007  3.5280001159999999  1.7640000579999999   F   F   F
  5.0906373583145390  7.4631837296403463  9.1900305961155482   T   T   T
  5.2920001750000001 12.3480004070000007  0.0000000000000000   F   F   F
  7.0560002329999998  3.5280001159999999  3.5280001159999999   F   F   F
 10.5840003490000001  5.2920001750000001  1.7640000579999999   F   F   F
 12.3480004070000007  3.5280001159999999  5.2920001750000001   F   F   F
 12.3480004070000007  8.8200002909999995  0.0000000000000000   F   F   F
  7.0560002329999998 10.5840003490000001  0.0000000000000000   F   F   F
 11.9887073727763500  7.6881214506119502 13.7242413252939865   T   T   T
 12.2190512846558388  7.3340447578499539  9.8707513345923754   T   T   T
  7.0560002329999998  8.8200002909999995  5.2920001750000001   F   F   F
 12.3480004070000007  5.2920001750000001  3.5280001159999999   F   F   F
  2.1272986734881449 10.2910438729396869 13.6665158835210701   T   T   T
  7.0560002329999998 12.3480004070000007  5.2920001750000001   F   F   F
  3.5280001159999999  0.0000000000000000  0.0000000000000000   F   F   F
  3.5280001159999999  0.0000000000000000  3.5280001159999999   F   F   F
 12.3480004070000007 12.3480004070000007  0.0000000000000000   F   F   F
  4.6452889263244614  2.0863737866221181 11.4907953495158779   T   T   T
 12.4515962366846082 10.7407313986847992  9.3709270000624283   T   T   T
  6.9438541673181593  1.5689328407588516  9.6041572026770350   T   T   T
  0.0000000000000000  3.5280001159999999  3.5280001159999999   F   F   F
  6.6030372026230895 10.3012783899041889 11.3040448785337784   T   T   T
  7.0560002329999998  0.0000000000000000  3.5280001159999999   F   F   F
 -0.4509253878932840  5.3184325221977558  9.2270058017533430   T   T   T
 10.5840003490000001  8.8200002909999995  1.7640000579999999   F   F   F
  3.5280001159999999 10.5840003490000001  0.0000000000000000   F   F   F
 12.2935790747112001  9.1368563852778379 11.5702294797016734   T   T   T
  3.0350541958129420  8.6120487971595736  9.3703958246050245   T   T   T
  0.9221770448345004  5.0772247472990886 11.3181554518587362   T   T   T
  5.2165644969825866 10.0309675751149197  9.2208978105178723   T   T   T
  5.5505155643952335  7.2837206255915028 14.1715302156070670   T   T   T
 12.4367001279491340 -0.1352411774256168  9.2876872510793618   T   T   T
  0.1327580124566499  3.6086238433220021  7.2601633027625070   T   T   T
 10.4683681256242522  9.1670134245970818  9.5576298555060202   T   T   T
  2.0907822242101988 -0.4185872439015236 13.8852109599715945   T   T   T
  8.8200002909999995 10.5840003490000001  5.2920001750000001   F   F   F
  1.7640000579999999  5.2920001750000001  3.5280001159999999   F   F   F
  1.8764217138046284  8.9645077892626830 11.4755686614535293   T   T   T
  7.0560002329999998  7.0560002329999998  0.0000000000000000   F   F   F
 -0.1457471500298806  7.0186141052357680  7.2651321195320042   T   T   T
 12.6619078539614804  9.1160705820335028  7.2790980685117095   T   T   T
  0.0000000000000000  3.5280001159999999  0.0000000000000000   F   F   F
  3.9210770575065563 12.0604911273678415 13.7462929188983001   T   T   T
 10.5676021170850714  7.3352023084249813 11.7281784780064591   T   T   T
  3.5049360395616564  2.1360442751913866  9.1922747494190666   T   T   T
  7.4716623403934266  7.1352360678217934 12.5259609068092619   T   T   T
 12.4076983455370247  3.1922486225413049  9.6177100802671447   T   T   T
  5.2084777726599096 12.3474579818389589 11.6875192019225054   T   T   T
  0.3426379147761928 12.4588246074729057  9.7159553656089646   T   T   T
  5.2920001750000001  0.0000000000000000  1.7640000579999999   F   F   F
  5.2333453489063002  8.9057067588393881  7.0588560258431796   T   T   T
  1.7490655656061547  1.7639114340500690  7.2717460632110127   T   T   T
  8.8200002909999995  0.0000000000000000  1.7640000579999999   F   F   F
  8.8128965144906140 12.5433094739583311  7.3785506265193996   T   T   T
  8.8200002909999995  1.7640000579999999  3.5280001159999999   F   F   F
  3.5280001159999999 12.3480004070000007  5.2920001750000001   F   F   F
  1.7434531297609213 10.6185216534482798  9.4413222340559670   T   T   T
 12.3236028675804281 12.3017607556501716  7.2693361762545337   T   T   T
  3.4125050943615927  3.5856035587514308  7.2145776606754719   T   T   T
 10.5840003490000001 10.5840003490000001  3.5280001159999999   F   F   F
  0.0000000000000000  1.7640000579999999  1.7640000579999999   F   F   F
 12.9887318664753586  3.6864423832339437 13.8645237108685730   T   T   T
 -0.1735450667011999  2.8515018302495529 11.7822765064484791   T   T   T
  1.7640000579999999  5.2920001750000001  0.0000000000000000   F   F   F
  5.3960275202209003  5.6163300858741039 12.3388687724268529   T   T   T
 10.5840003490000001 12.3480004070000007  5.2920001750000001   F   F   F
  1.7783892667670582  8.5076280948368019 14.1423605530044050   T   T   T
 12.4970665315234672  0.4827264279293309 14.9446587112979046   T   T   T
 11.7390139645381666 11.8762515534203548 14.6022673863865524   T   T   T
  5.1093998850766331 11.5599155326605647 14.8200826409444950   T   T   T
