Cr Co Ni  H 
 1.0000000000000000
    14.1120004653999995    0.0000000000000000    0.0000000000000000
     0.0000000000000000   14.1120004653999995    0.0000000000000000
     0.0000000000000000    0.0000000000000000   32.0000000000000000
 Cr  Co  Ni  H  
  86  85  85   4
Selective dynamics
Cartesian
  5.2920001750000001  1.7640000579999999  0.0000000000000000   F   F   F
  3.5280001159999999 12.3480004070000007  1.7640000579999999   F   F   F
  3.8562581103404803  4.4566671125301429 14.0652435632612338   T   T   T
  0.0000000000000000  3.5280001159999999  0.0000000000000000   F   F   F
  1.7640000579999999  3.5280001159999999  1.7640000579999999   F   F   F
  5.2546088632257897  7.3138158336577206  9.6854916247381251   T   T   T
 12.7941826382183503  5.1363022450960605 12.2474410927806545   T   T   T
  8.3359522005149138  8.5170003140579578 11.7674088151396710   T   T   T
 10.5840003490000001 10.5840003490000001  0.0000000000000000   F   F   F
  3.3191036846645661 -0.4360141948203978  7.6796882368898904   T   T   T
  7.0560002329999998 10.5840003490000001  3.5280001159999999   F   F   F
 10.5840003490000001  8.8200002909999995  1.7640000579999999   F   F   F
  3.2045872290227910  9.1390136617836397  9.3055676333286126   T   T   T
  0.1140789644257827 10.0780835064453385 11.8715966758178606   T   T   T
  3.5280001159999999  7.0560002329999998  3.5280001159999999   F   F   F
 12.3480004070000007  7.0560002329999998  1.7640000579999999   F   F   F
  9.3267942913766557  1.9605895318465292  7.5236251765647255   T   T   T
  4.9643673750835093  1.6279525194134801 11.6182347418846774   T   T   T
 10.5840003490000001 10.5840003490000001  3.5280001159999999   F   F   F
 -0.2218862915681798  0.2351066479670854  7.6411175752428360   T   T   T
  7.1066482822254091  9.0722039862987973 14.5851953811228690   T   T   T
  5.2089820189761973 -0.2355695257300251 14.0437465263570243   T   T   T
 10.5840003490000001  3.5280001159999999  3.5280001159999999   F   F   F
 -0.6162174234275326 12.1049015591837339  9.6944774919127443   T   T   T
  3.5280001159999999  5.2920001750000001  1.7640000579999999   F   F   F
 12.3480004070000007  5.2920001750000001  0.0000000000000000   F   F   F
  0.0000000000000000  0.0000000000000000  0.0000000000000000   F   F   F
  2.2415293485268082  8.3371575465068730 11.7110620357395288   T   T   T
 10.5840003490000001  3.5280001159999999  0.0000000000000000   F   F   F
  3.4592533225616662 10.8430162143584283 11.9179506121247556   T   T   T
 12.3480004070000007 10.5840003490000001  5.2920001750000001   F   F   F
  7.2212302470251490  1.7569335775298955  9.7931662515373539   T   T   T
  5.2920001750000001 10.5840003490000001  1.7640000579999999   F   F   F
  1.7640000579999999  5.2920001750000001  0.0000000000000000   F   F   F
  7.0560002329999998  1.7640000579999999  5.2920001750000001   F   F   F
  1.8823377264217565  1.8548176333414506  7.4335987968813351   T   T   T
  1.7640000579999999  0.0000000000000000  5.2920001750000001   F   F   F
  7.1850258461703458  7.1846647236143157  7.2873057053547186   T   T   T
 12.3480004070000007  1.7640000579999999  3.5280001159999999   F   F   F
 12.3480004070000007  8.8200002909999995  3.5280001159999999   F   F   F
  7.0560002329999998  1.7640000579999999  1.7640000579999999   F   F   F
  5.2920001750000001 10.5840003490000001  5.2920001750000001   F   F   F
  5.4908346954141187  8.7725429459212965 12.1521360779612468   T   T   T
 10.5840003490000001  1.7640000579999999  1.7640000579999999   F   F   F
  7.5757419388639038  3.6951333910297639 12.5484692669107858   T   T   T
  6.9995334441548716  5.0893708407299245  9.8730576062604332   T   T   T
  5.7032433506569058 10.4788868100675749  9.6847654577527269   T   T   T
  8.8200002909999995  5.2920001750000001  3.5280001159999999   F   F   F
  1.7640000579999999  0.0000000000000000  1.7640000579999999   F   F   F
 11.1417919884036181 11.4999358202470763 14.2559133216435168   T   T   T
  7.0880980515747618  3.4972461173653322  7.5020531915625783   T   T   T
  9.2334999677040219  8.7980732876202641  7.3779203848878625   T   T   T
  6.6830290921525766  4.5892817037721656 15.1480673599085840   T   T   T
 10.5840003490000001  0.0000000000000000  0.0000000000000000   F   F   F
  1.3443430404209737 11.8820391001665158  7.5984631718424431   T   T   T
  2.8994757591811711  3.5905335957216420 11.3598173571582599   T   T   T
  3.5280001159999999  8.8200002909999995  1.7640000579999999   F   F   F
  5.2920001750000001  5.2920001750000001  3.5280001159999999   F   F   F
  0.0000000000000000  7.0560002329999998  3.5280001159999999   F   F   F
  5.0633482639989937  1.6247838784347481  7.5854950748989447   T   T   T
  9.3895704697415763  3.3055664417254138 14.8077725433770677   T   T   T
 -0.4367569753564230 -0.0597964007026846 11.8233188188617024   T   T   T
  8.6518136826885499 10.9052089764498934  9.6168190343889250   T   T   T
  8.8200002909999995  0.0000000000000000  1.7640000579999999   F   F   F
 10.5840003490000001 12.3480004070000007  1.7640000579999999   F   F   F
  3.5280001159999999  3.5280001159999999  0.0000000000000000   F   F   F
  0.0000000000000000  5.2920001750000001  5.2920001750000001   F   F   F
  5.2920001750000001  3.5280001159999999  5.2920001750000001   F   F   F
  0.0000000000000000  7.0560002329999998  0.0000000000000000   F   F   F
  0.0000000000000000  0.0000000000000000  3.5280001159999999   F   F   F
 10.9753727244719386 10.7763005044719957  7.9935977827289841   T   T   T
 12.3480004070000007  0.0000000000000000  5.2920001750000001   F   F   F
  5.2920001750000001  8.8200002909999995  0.0000000000000000   F   F   F
  5.1953570906336841  6.9768158385274743 14.5683372118197560   T   T   T
 12.3480004070000007  3.5280001159999999  1.7640000579999999   F   F   F
 10.4498610785985040  3.8187816017369154 11.7241945658275384   T   T   T
  8.8200002909999995  0.0000000000000000  5.2920001750000001   F   F   F
  5.2622772265257698  5.4645116544699501  7.4468929363798084   T   T   T
  8.8200002909999995  8.8200002909999995  0.0000000000000000   F   F   F
  5.2920001750000001  0.0000000000000000  5.2920001750000001   F   F   F
  3.5280001159999999  5.2920001750000001  5.2920001750000001   F   F   F
  0.0000000000000000 12.3480004070000007  1.7640000579999999   F   F   F
  5.7395969088828469 12.4542127132667702  7.5927441028699620   T   T   T
 10.7299182658790926 -0.4143058224863526  7.6415569122360658   T   T   T
  9.1788241047612402  1.3929129297511276 12.0378209360028059   T   T   T
  3.5280001159999999  0.0000000000000000  0.0000000000000000   F   F   F
  1.3706747330380518 12.3225454913492189 12.1796393520782509   T   T   T
  7.5671899592948426 12.5202720845438815 13.9230002397240895   T   T   T
  3.1878794775100094  1.7441300349597182 13.7750711565989779   T   T   T
  5.0283839133085326  8.7214903264538233  7.2946980750226658   T   T   T
  0.0000000000000000  3.5280001159999999  3.5280001159999999   F   F   F
  7.0560002329999998  0.0000000000000000  3.5280001159999999   F   F   F
  7.0560002329999998 10.5840003490000001  0.0000000000000000   F   F   F
  7.1628239447233124 12.9476971401098098  9.8337594648934203   T   T   T
  1.7640000579999999 10.5840003490000001  5.2920001750000001   F   F   F
  9.2398229784923718  4.0798801959308859  9.2490741490644677   T   T   T
  3.8309990892686057  6.2819251897396189 11.8537659322576108   T   T   T
  8.8200002909999995  1.7640000579999999  3.5280001159999999   F   F   F
  5.2920001750000001  7.0560002329999998  5.2920001750000001   F   F   F
 10.5840003490000001  7.0560002329999998  3.5280001159999999   F   F   F
  1.7101106306878791  6.7859230035430613  9.4974704264309100   T   T   T
  3.5280001159999999  0.0000000000000000  3.5280001159999999   F   F   F
  3.5280001159999999 12.3480004070000007  5.2920001750000001   F   F   F
  3.5280001159999999  1.7640000579999999  1.7640000579999999   F   F   F
 10.2780483445000002 10.4481163735496807 11.5534848820251259   T   T   T
  1.2080648517964099 -0.0008685538857561 13.8831614981827745   T   T   T
  1.7640000579999999 12.3480004070000007  0.0000000000000000   F   F   F
  5.2920001750000001  7.0560002329999998  1.7640000579999999   F   F   F
  0.0000000000000000  1.7640000579999999  1.7640000579999999   F   F   F
  3.5280001159999999  7.0560002329999998  0.0000000000000000   F   F   F
 12.3480004070000007 12.3480004070000007  0.0000000000000000   F   F   F
  7.1939663125818587 10.9934048474692752 11.9253397883320229   T   T   T
  9.2383194945533251 -0.0858800879622559  9.7541274330232941   T   T   T
  1.8342212542933058 -0.4833486527987794 10.0763334545926693   T   T   T
  5.3967021054503874 11.0862211178833956 13.7316729713825580   T   T   T
 10.5840003490000001  5.2920001750000001  1.7640000579999999   F   F   F
 -0.3662436910062822  2.0179075098273334 13.5441973041160200   T   T   T
  1.3879713130104741  5.7751631327304249 11.9719083502808239   T   T   T
  9.0787622499186007 12.5866413034710458 11.8610094230739076   T   T   T
  1.8875983340405429  9.0337535901301624  7.1032861526913633   T   T   T
  7.0560002329999998 12.3480004070000007  5.2920001750000001   F   F   F
 12.4882599513972590 -0.1819662773508203 14.1114294073681119   T   T   T
  8.5616624447220282 12.1975529764265840  7.2676417390122827   T   T   T
  3.5280001159999999  3.5280001159999999  3.5280001159999999   F   F   F
  3.5280001159999999  8.8200002909999995  5.2920001750000001   F   F   F
  1.7640000579999999 12.3480004070000007  3.5280001159999999   F   F   F
  3.6540309620664964 10.8196517223561575  7.2865271818784780   T   T   T
  7.0560002329999998 12.3480004070000007  1.7640000579999999   F   F   F
  5.2920001750000001  8.8200002909999995  3.5280001159999999   F   F   F
  8.8482309060304694  5.2352587758817863  7.1091096881381564   T   T   T
 12.8584674975648685  5.5118872560314154  7.6549128921884790   T   T   T
 -0.1878545369563886 11.9529377217518480 13.9692802258988280   T   T   T
 12.0544346155700097  8.5489152968798017  7.1457575059621954   T   T   T
  7.0579009204432044 10.2181278562038607  7.3089665798770191   T   T   T
  1.7640000579999999  3.5280001159999999  5.2920001750000001   F   F   F
 12.7500246376047031 12.2447114269153854  7.1732302203224583   T   T   T
  3.5453811180294079  5.2993355664347002  9.4887788698707798   T   T   T
  0.0000000000000000 12.3480004070000007  5.2920001750000001   F   F   F
  5.2920001750000001 12.3480004070000007  0.0000000000000000   F   F   F
  0.4667686176939047  8.0351718032998001 13.6676549900287405   T   T   T
  2.5227369918241571  6.8379768910661936 13.9560137875798826   T   T   T
  3.4322584638022349  3.7649036817276498  7.4571564820591787   T   T   T
  3.2353471867089176  7.0817218009625904  7.4448666241976769   T   T   T
 10.5840003490000001 12.3480004070000007  5.2920001750000001   F   F   F
 10.3191410048890457  8.6830241894168054  9.7795360859294647   T   T   T
  5.2675354545628856  4.3397617386361818 11.6141944077962318   T   T   T
  3.6911815811356017  9.1353485299550048 14.0829225154481730   T   T   T
  8.9034428328176993  5.9039572240535243 11.7042741852951249   T   T   T
 12.3473810307475524  7.1343819059892413 14.0125349169229967   T   T   T
  8.8200002909999995 10.5840003490000001  1.7640000579999999   F   F   F
  8.8200002909999995  7.0560002329999998  1.7640000579999999   F   F   F
  0.0000000000000000  1.7640000579999999  5.2920001750000001   F   F   F
  1.5407872504316902 10.2059088117028214 14.0110102774454752   T   T   T
  7.0560002329999998  0.0000000000000000  0.0000000000000000   F   F   F
 12.3480004070000007  8.8200002909999995  0.0000000000000000   F   F   F
 10.4113805737733056  5.6399168817618106 13.7065450290351620   T   T   T
  5.2920001750000001  0.0000000000000000  1.7640000579999999   F   F   F
  0.0000000000000000  8.8200002909999995  5.2920001750000001   F   F   F
  0.2453104850682240  5.6405321455038866 14.2376222108572801   T   T   T
 10.5840003490000001  8.8200002909999995  5.2920001750000001   F   F   F
 12.3480004070000007  5.2920001750000001  3.5280001159999999   F   F   F
  1.4237042379361304  3.6300892614192897 13.4990292569478374   T   T   T
  0.0000000000000000  5.2920001750000001  1.7640000579999999   F   F   F
  0.0000000000000000  8.8200002909999995  1.7640000579999999   F   F   F
  5.2920001750000001 12.3480004070000007  3.5280001159999999   F   F   F
  5.2920001750000001  3.5280001159999999  1.7640000579999999   F   F   F
  7.1110106009788066 -0.0772485323308053 12.0314582943810304   T   T   T
  1.6687352444642995  1.4111919033526301 11.9126131808120945   T   T   T
 10.0214130864293587  8.2365328013371624 13.8530048093030231   T   T   T
  7.0560002329999998  7.0560002329999998  0.0000000000000000   F   F   F
 -0.3568600577595135  7.4717329789028613 11.4389087359032011   T   T   T
  8.8200002909999995  8.8200002909999995  3.5280001159999999   F   F   F
  7.4438791389432044  8.6704930687208535  9.3053400084091926   T   T   T
 10.5840003490000001  1.7640000579999999  5.2920001750000001   F   F   F
 10.5840003490000001  7.0560002329999998  0.0000000000000000   F   F   F
 12.3381900616064915 11.7736558686645161 12.0338094766535697   T   T   T
  5.2920001750000001  1.7640000579999999  3.5280001159999999   F   F   F
 10.5840003490000001  0.0000000000000000  3.5280001159999999   F   F   F
  0.2972294209493939  3.4262712888705216 11.3245138210935341   T   T   T
  8.8200002909999995 12.3480004070000007  0.0000000000000000   F   F   F
  0.4517079824223637  1.5948055652366262  9.7483007160455344   T   T   T
  7.0560002329999998  8.8200002909999995  1.7640000579999999   F   F   F
 12.5134100956576049  7.4628216445188373  9.2846111718519087   T   T   T
  1.5430102821600347  3.8070163697945794  9.1824735639046224   T   T   T
  5.0957400242750950  0.0351475627797605  9.5943485653757445   T   T   T
 10.5840003490000001  5.2920001750000001  5.2920001750000001   F   F   F
  0.0000000000000000 10.5840003490000001  3.5280001159999999   F   F   F
 12.6471778688146177  3.3005442521166670  9.2680099273437762   T   T   T
  3.7218926923956990 12.0611573226956814  9.5388857301268075   T   T   T
 12.3480004070000007 10.5840003490000001  1.7640000579999999   F   F   F
 11.2849882198962916  5.3604486318501401  9.7298676205862051   T   T   T
  8.8200002909999995  5.2920001750000001  0.0000000000000000   F   F   F
  7.0560002329999998  3.5280001159999999  3.5280001159999999   F   F   F
 11.1427142524409248 -0.1783945760621048 11.9507677328630670   T   T   T
  2.9851632055400099 12.1772251707395878 14.1708009480439650   T   T   T
  7.0560002329999998  5.2920001750000001  1.7640000579999999   F   F   F
  1.7640000579999999  8.8200002909999995  3.5280001159999999   F   F   F
 10.9642040881704990  4.0564038024186919  7.4408290047967904   T   T   T
  5.3437995214858764 12.5216052287753996 11.5206613797309174   T   T   T
  0.5112013415690427  8.8963557206403596  9.4898583820955462   T   T   T
 12.2489932484621598  4.0480655154794132 14.4845330110362713   T   T   T
  1.7640000579999999  7.0560002329999998  5.2920001750000001   F   F   F
  5.2920001750000001  5.2920001750000001  0.0000000000000000   F   F   F
  8.9394697125208680 10.4895333759649176 13.5303381550639159   T   T   T
  7.0560002329999998  3.5280001159999999  0.0000000000000000   F   F   F
 12.3480004070000007  0.0000000000000000  1.7640000579999999   F   F   F
 10.4318329943535915  2.0454550944849865  9.8084447277875899   T   T   T
  8.8200002909999995 10.5840003490000001  5.2920001750000001   F   F   F
 10.7235068286001276  6.6527222195598243  7.4139828800659178   T   T   T
  1.6085943949801831  5.3377755034425594  7.2739063223910483   T   T   T
 12.3480004070000007 12.3480004070000007  3.5280001159999999   F   F   F
  7.4272190233338193  0.2313806269617446  7.6175105486613193   T   T   T
 12.1484240830538059  0.3422292451428761  9.6372664902383889   T   T   T
 12.3480004070000007  1.7640000579999999  0.0000000000000000   F   F   F
  8.1771504496999601  6.5521610562114772 14.0663911763717948   T   T   T
 -0.2443681218486928  5.4144514102883008  9.8892978548610699   T   T   T
  7.6623604725207919  1.1195539894075015 14.1585050599181397   T   T   T
 11.1042397891619196  7.0939190121259754 11.6307617547711075   T   T   T
  8.8200002909999995 12.3480004070000007  3.5280001159999999   F   F   F
  7.0560002329999998  7.0560002329999998  3.5280001159999999   F   F   F
  7.0560002329999998  8.8200002909999995  5.2920001750000001   F   F   F
  8.8200002909999995  1.7640000579999999  0.0000000000000000   F   F   F
 12.0183626302129625  9.1559188726949916 12.6388104566994208   T   T   T
  1.7640000579999999  1.7640000579999999  3.5280001159999999   F   F   F
 11.2462820244399850  1.8783576251874003 13.6720999289786942   T   T   T
  1.7640000579999999  8.8200002909999995  0.0000000000000000   F   F   F
  3.3072829393437497 -0.3614920094671357 12.1821004223043250   T   T   T
  0.0000000000000000 10.5840003490000001  0.0000000000000000   F   F   F
  1.7640000579999999  5.2920001750000001  3.5280001159999999   F   F   F
  1.7640000579999999 10.5840003490000001  1.7640000579999999   F   F   F
 12.0263137490985397  1.8617037934280887  7.2783361064730316   T   T   T
  3.5280001159999999 10.5840003490000001  3.5280001159999999   F   F   F
 12.3375849757893388  2.1179365193360566 11.4492897902551203   T   T   T
  5.0217484362319755  3.3831532271953089  9.4002259863034610   T   T   T
  3.1201800181283281  1.6113495027806148  9.6379306162890330   T   T   T
 12.3480004070000007  3.5280001159999999  5.2920001750000001   F   F   F
 10.8870370728416557 12.2839086625688303 10.0419723792330906   T   T   T
 -0.1071664996053769  3.4062977007059452  7.1706855456249867   T   T   T
  5.6491409608632859  2.4693207591746620 13.9538406484920365   T   T   T
  1.6375893883958674 11.0257216908819426 10.0450390825094473   T   T   T
  0.1634753890257972  7.3933259222325169  7.3066954582176322   T   T   T
  9.0010636350650461  6.6590584367235648  9.2499219350012982   T   T   T
  7.0560002329999998  5.2920001750000001  5.2920001750000001   F   F   F
  8.8200002909999995  3.5280001159999999  5.2920001750000001   F   F   F
  1.7640000579999999  7.0560002329999998  1.7640000579999999   F   F   F
  9.7895581843388282 -0.2197926240663290 14.0967305035240447   T   T   T
 -0.3466387554023448 10.0865183024272174  7.5044217930701391   T   T   T
 13.1426532965589722  9.6694291796905105 14.7381347679741257   T   T   T
  8.8200002909999995  3.5280001159999999  1.7640000579999999   F   F   F
 12.3343848197626240  9.8678339693578607 10.1135858871724142   T   T   T
 12.3480004070000007  7.0560002329999998  5.2920001750000001   F   F   F
  6.5411909150588672  6.3514955794699235 12.2379220730011351   T   T   T
  3.5280001159999999 10.5840003490000001  0.0000000000000000   F   F   F
  1.7640000579999999  1.7640000579999999  0.0000000000000000   F   F   F
  8.8200002909999995  7.0560002329999998  5.2920001750000001   F   F   F
  3.5280001159999999  1.7640000579999999  5.2920001750000001   F   F   F
  5.1030845957598645  5.5786886638422200 12.8670723245678804   T   T   T
  1.9940206457158487  8.5103318057603374 14.6528068414917456   T   T   T
  9.5821717458566837  7.3265063707172127 10.7652814947528999   T   T   T
 -0.2559514493165184  0.0470768816273939  9.6537471037749594   T   T   T
