Cr Co Ni  H 
 1.0000000000000000
    14.1120004653999995    0.0000000000000000    0.0000000000000000
     0.0000000000000000   14.1120004653999995    0.0000000000000000
     0.0000000000000000    0.0000000000000000   14.1120004653999995
 Cr  Co  Ni  H  
  85  85  86   4
Cartesian
  1.8119505236934956  1.7603367405376027  3.5861197434019045
 10.5947374312038338  1.6977245093664366  1.6877364227411318
  7.0663336616595993  1.7869604650084341 12.3312749842451961
 -0.1190077405549929  3.5424945714864053 -0.1295386617600188
 10.4961565670714680  1.7594308413323105 12.4220315259808736
 10.4543591449142621  8.8536194678356726  5.2454423484361294
 -0.0841283699792608  3.4986261176558919  3.5161025842024465
 12.3125205228640233  3.5085780579503902  8.9059790541711354
  1.7201887126653173 -0.0661534090541024  1.6739508145099424
  7.1807030492308552  7.0587734960994677  7.1358959516847040
 12.3228223441613256  8.9266306198533201 10.6151596939899111
 -0.0587284241534286  8.8757139373964922  8.8634237695194873
  8.8351099551003287  5.3124050543904486  3.4809299384922654
 12.3245563671555249 12.4180586938712505  7.0301542384795441
  7.0566148131789319  5.2812846256608079  5.2921090346481581
 -0.0754154899808208  1.7215286730984585  1.6320118949168081
 12.2625414202043643  1.6956251527023176  3.5180107081635579
  7.0581078164529600  5.2259926905003242 12.3190106804509263
 12.3389358414337327  5.3421313184561159  7.1418918807941143
  3.5665544326787044 10.5918290867499945 10.6733409625667619
  3.5482602941452610  8.9298566766121876  1.6756824320780626
  5.3837361835749631 12.3438459634331590  7.1104590502033114
  1.7377223781873954  8.9664446868436194  3.4111225298073582
  3.5101613936294815  5.2490718728943513  5.3880496756427467
  3.6096558920850068 -0.0249684588277040  7.1151798881162538
 12.2912102757825981  7.1002669763012642 12.3167542475473226
  5.3260856209486134  5.2288988416817856  0.0136080213698765
  7.1520999099323843 10.6618531658479867  3.4376060183878607
  8.8396091451080956  7.0814521708654539 12.3643823271886344
  5.3321696809641033  7.0961724828591883 12.2822223763397744
  7.0782807265225349  8.8142798988378921  1.6806625579511141
  3.5230244000771069  7.1178130328409681 10.5776310859622065
  3.3892881994182513  7.0908239190370859  7.1256045995455315
 10.5174933206276968 10.6265364586786539  7.0834154263556748
  8.7959301086335095 -0.0712209555979129  1.7318197398436503
  8.8090670922463410 12.3954834250895392 10.6664777830058117
  3.5062936880036895 -0.0270562950987885 10.5723078132428334
  3.4659743144164388  8.8679186443303752  5.2815972320217091
  1.7402750683842443  5.2258591567454813 10.6185571064912896
  7.0620479611160771  1.7247066790002104  5.3532098534514656
  3.5722703280683055  5.1967177618710627 12.3020709731548514
  8.8432126510751008  3.5085489693727299  5.3797640415259798
 10.5390505045249867  8.8373860140203835  8.8765542034455169
  0.0686256863699269 -0.0549079452990552 10.6527200814229914
 12.3696435390345538  0.0220288425231400  8.8538893536478085
  7.0977780048952779 10.5887347469821815 10.6651221225015433
  1.7745455415161293 10.6185508289285533  8.9257649328409840
  8.8019893408175243  3.4716477358499778  8.7987864748484732
  3.5573616430995387 12.2760518017786087  1.7162966748840645
  3.5514627182364675  1.6877965614141017  1.6863182025888037
 -0.0304877572919134 10.6277014634293447  7.0689497403732320
 10.5962379281836885  7.0585257738860019  3.3779315859187187
 10.5274904206228825  3.5284571306432837 10.6452617644514493
 12.3497693557751163  1.7464603141072033 10.6854728140178992
 -0.0893959256022861  5.3040984742632658  1.6680831046287383
  7.1873553392544718  8.8441882709334028  5.2821631920692891
  7.0126487554419414  3.4974975166135058  3.4794717909351065
  5.3467783636912900  7.0988109660739385  5.2924468549873698
  3.5689360626360727  1.7993326108243617 12.3395074068865291
  5.3122165755366160  8.8414611862381118  3.4498660841334634
  3.6153181557184455 -0.0763677507480967 -0.1069700525259840
  0.0864281746109737  7.0566015049015158  7.1508785068405967
 10.6172900176396787  3.5394784686496057 -0.0036109800188717
 12.2840349738950927  7.0800669535369636  5.2997611323848002
 12.3403988559039615  8.8685870137571516  3.4175885202850140
  1.7660813388197603  7.0798266757970385  1.5974056389758393
  5.3131818429408675  1.7076910514951200  3.5018581938779065
 -0.0157814985278994  7.0883909799570244  3.4469529137603652
 10.5536627005002064  1.7031124463965559  5.3536590540515254
  1.7668737095400844  5.2499026004196176  3.4651252296259192
 -0.0413102217439253 -0.0579000051573071  3.4671616875576192
  3.4931660002153415 10.6426997589674492  7.1155157135013276
  3.5398270752680845  5.2137406775985209  8.8399617866047340
 -0.0470720618204725  1.6992424194030682  5.3504752332056489
 -0.0182102131716264  3.5096579720330965  7.1388817614056315
  1.8254896550679327  1.7242181160230809  7.1406901594870051
 10.5234393715908361 12.3693576474390774  8.8661787148709390
  7.0664485696142210 10.6641137194591895 -0.0587795343545512
  5.3634399076379360 10.6187832200133876  5.2928126349044460
  0.0537777880259409  5.2856551700063266  5.3003564886862584
  0.0517197756862975  8.8555591930412909  5.3106664447697813
  3.6345558409582877  3.5345866048253596  3.5054957690348036
  1.7610087395375342  3.4759201619248654  1.6392305354215391
 12.3046838472244282 10.6261181522423094  5.2187947192588737
  3.5292359889418603  7.0198873930228087  3.4822615303021811
  8.9280767245793129  8.8641374545767366 -0.0183452501048165
 12.3331907519832917 12.2910406238262411 10.6439318037490196
  3.5507734272211535 10.6133499968686920 -0.1521854688476318
 10.4678134959238971 10.6582863471008462  3.4533967487335033
  7.0885012648994170  8.8220756980633919 12.3979175924955687
  1.7412674838378586  5.1954672709124345  7.1354625573699497
  8.8090059942438437 -0.0910578812407005  5.2943849599586699
  8.8144599785092659 10.7168922512543450  5.3106566789979208
  1.7237902156258766  7.1413497024644954  8.9133479144655663
  5.2721691071138022  8.8751664379462127 -0.0702841750724682
 -0.0386522561945996  7.1288179617738328 -0.0909061747829981
  0.0204598632143750 12.3504698724903630  8.8691509957926620
 10.5664168231654561  5.2952856738264105  5.3527181432457835
  1.7946342182336570 -0.1231039733470034  5.2761245673904629
 10.5808982137381946 -0.1433274919469786  3.5500573095512094
  1.6687557850834482  8.7930940248244216 10.7058860298434162
  3.5232335957082674  5.2672983147233303  1.6910355929803620
  5.3237466846686745 12.3644281236012361  3.5353206222548983
  8.7915062859223845  3.5797659630296055 12.3709371369659156
  3.5079220620074101  7.0772902660863659 -0.0732466742068992
 10.5840681295453614  0.0156243655535544 10.6183816721944382
  5.2980199659244418  3.5221001335182827  5.4151507477989007
  1.8000356802361939  3.5025947106301407  5.3405056815717282
  7.0293725747764002  0.0262282894002299 10.5406097963397585
  8.8624354678557733  7.0232970697051718  5.2859809544247733
  8.8131639282838226  5.2758735082129675  0.0811761822098335
  8.8012791229035905  3.4940391968126558  1.7483343973797256
 10.4479969815730431  7.0581581209174082  7.0726774165392037
 10.5451928579967547  8.9372602527927949 12.3988505455084397
  1.7318827292280958  1.7072859123321398 -0.1188876875316348
  5.3350410949232119  5.2374142312883416  7.1446408605596927
  7.1220944396642860 -0.0915301900383039  3.5582962145692449
  8.7797201065190400  0.0469178905349972  8.8159272015867991
 12.3452770552882711 10.6339675901430457  1.7040271361155512
  1.7622465102491010 12.2546879221028142  3.5263729330201037
 12.2862992601115053 12.3029514076273987  3.4649526565760400
  1.7054888564102975  7.1101843225583048 12.4280715236221635
  0.0412227341397238  1.6992557672695676 12.3774514679482515
 10.6208193230621131  3.5089264222099605  7.1389001320042684
  8.8688360379857247  1.7242789554977840  3.5068492763343584
  5.4045804609215713  1.7839714672832554  0.0554162957192540
  5.3742162390692219  5.2125409501803448 10.5165317602028328
  5.3614330236941017  1.7983938203984451 10.4897611315471728
 10.5758124592827993  7.0826546150952678  0.0546028201373040
  5.3309592943637769  8.9045407694502803  7.1683151297783398
 10.5410053877747565  1.6571144733572420  8.7865128087196691
 10.5851221882028366  3.5891644037141526  3.4787219834389957
  3.5569979958487341  3.4907638855042418  0.0122477587674024
  8.7196702919982219  1.7635436302173297  0.0276727703065908
 10.5086107918194731  5.2958798040995383 12.3514734929733656
  6.9826813556021872  3.5412688882737071  7.1158866260041842
  7.0810235583960450  5.3661557977219427  1.7422440346678705
  5.3590327833885523 10.5543989337774917  8.8570819443612212
 -0.0074054265772336  3.4881715829102569 10.6854766370749772
  8.7907145276819918  5.3369173938032830 10.5357657465861685
  7.0081917513279270 -0.0662788070140540 -0.0225508357009844
  3.4861609808646166 -0.0854586678224929  3.5796890242370822
  7.0643339550366395  7.1234613553054320 10.4824500068414768
 12.3679038217734654 -0.1213612704331515 12.3903405904801449
  1.7131414863312597  1.8517006042567450 10.5778312862208974
 12.3183567917136259  1.7097381353523666  7.0900897145503192
  8.8881999649442012 12.3472601170434935 -0.0879338913117996
  0.0466609121437424 12.3711463635142458  5.2536536995600960
 10.5143853038629693  5.4137944491416192  8.8699932137003898
  1.8042806111750278  5.2951281121572533 -0.1347624178301422
  1.7718049915464666  7.0715143725582088  5.3114091860323907
  5.4180456804771540 -0.0785744150702262  1.7160782086367248
 10.6064449051902248 -0.1135460447256812 -0.0072416170761614
  0.0195890394465160  7.0462296466988077 10.5966123668868182
  7.0323247382789305  5.2812427392118266  8.8844451370451623
  1.7389205164900439 10.7282268267791476  5.3071827924552331
  5.3651520252508753  8.8424757627664405 10.5261700267678844
  1.7397627794486017  8.9267555971289401 -0.1041368626866507
  8.8601460085953896  8.8065966034929044  3.4149342974941175
 12.2419272088750759  5.3768673095066548 -0.0641496521362434
  3.5335178319470382  8.8396143048656661  8.8487445775751130
  1.7035083487709000 12.4328076472560607  7.0656460573657176
  8.8403664038335688  7.0777680186634582  1.6258773139748373
  0.0097483237762531  8.8870155285811254 12.3779605237801587
  7.1109450464030353  0.0030914364820661  7.1273222127089841
 10.6505583730034132 12.3130393796400526 12.3721997905824850
  8.8069213445657262  1.6392738985579733 10.5457900429089637
  7.1094232627643450  8.8737219667884162  8.8427068871864307
  1.7059388377554145 12.2409790883670961 -0.1083786335585125
  5.3822149002181021 12.3842700483710750 10.5709386100705611
 12.3517786420518192 10.6979553589267020  8.8508673991882869
 -0.0247011544429295  5.3387838360384734 12.3428769560722653
  1.7494177404148825  3.4905534737467510  8.8806380362038411
  8.8147554989312855  8.8493836891430213  7.0925558058461933
  0.0107333138028488  1.7492259210129730  8.8661127820162307
 -0.0031293723517749  8.8514008094344234  1.6468570035877776
  1.7405597043262484 10.6324971252310299  1.6653112037366991
 12.3328866477585972  5.2987922864296220 10.5864058666659808
 12.2895150415294658  5.2858720998309634  3.5693666253435192
  8.8415048527742250 12.3595803923897343  3.5127711562101611
 10.5585385427909024 10.6328609756358645 10.6370386784446147
  3.5505631181122959  3.4895939094738377  7.0805128772041197
  7.0488064760070648  1.7389386134228428  8.8016569493806731
 10.5788733866061797  8.8958310788056423  1.7050602608989349
  5.3140044881471908 -0.0524397317615774  5.3137356147292802
 12.3357780169527604 10.6060965482709548 12.3769992656003396
  1.7625459399331891 -0.0471869408131565 12.4016469663646802
  5.3118262400342715 10.5708397079072913 12.3377329687729258
 -0.0172597622154642 10.6417007533847023 10.6375206079541211
  1.7543502263418151  3.4866435523173926 12.3753700153746244
  7.1188710651293672 10.5752956369153193  7.0908082634066520
 12.3520214974350395  7.0857852994531303  1.6562733567436883
 -0.0234292429314455 -0.0791278840850563 -0.0469883504607423
  7.0664326953121996 12.3550697945173855  1.7233941350194721
  5.3126185779387702  3.5303431300665404  1.7272614322728526
  8.8136312712439864  1.7128930208694713  7.0931141791275429
  5.3153305536838120  3.4982021983045222 12.3360884848498618
  8.8245323992843225  8.8440122359104887 10.6510209309047923
  8.7767135589858611 12.3840813688480722  7.0893821766034790
  7.0936410623143944 12.3696545605850616  8.8491992214108972
 -0.0158707540070321 12.3039907594045630  1.7213608457728391
  3.5143690444768634  8.8220966971133858 12.3626999446081296
  5.3053938850852367  1.7437961683680165  7.0818979139044727
 12.3436510031262632  1.6626029451627788 -0.0985661238854448
  7.0902978290601748  3.5002546683050730 10.5561570493026444
  0.0062731910229932 -0.0193755692124978  7.0682810012433794
  5.3221913857437988  5.3271337549197115  3.4733409665166493
 12.3239163053410419 -0.0628599466443191  5.2865252268557636
 10.6036281481067078 10.6234774622903618 -0.0045462689994102
 -0.0252491588475605 12.3048098026797437 12.3702833813699229
  3.5707150463258164  3.4751920445500502 10.5680412193772781
  5.2608415318011037  7.0403678062351780  1.7603129743156998
  7.0822503528547944  1.7224498514029083  1.7681554719959873
  7.0429390936665239 12.4120740391491520 12.3418639138257387
 12.3190858679285196  8.8675718487087014 -0.0178004229703523
 12.3194332886404467  3.5808982188658800 12.3109761742959627
 12.3549500968890449 12.3130655155541362  0.0084512817574863
 -0.0273453267585661 10.5862328653913291 -0.0160660098178344
 10.6116930290343507  5.2925492142758612  1.7106212994513859
  7.1052942646215147  7.0840272834604852  3.4979416461731256
  8.8026407459222096  7.0806803982217650  8.8798483865727231
  5.3579612751818866  0.0076575956765320  8.8646856164833352
 12.3121039336955835 -0.0837212860112934  1.7186362871897425
 10.5478059606674055  7.0441244118579140 10.6100985809621502
  0.0221419676047314  5.2931551130747732  8.8969738537581389
 10.5417830155429701 12.3525857480573364  5.2786521029862437
  8.8574676981613365  5.2820991021294175  7.1056833299936635
  3.5293953662016198 12.3349943176253607  5.2849114223241598
  5.3104515183003969 10.6283307337396842  1.7368644479510102
  3.5585758807705066 12.3333160262347157 12.3388656440317845
  8.7863837392153936 10.6089731592568643  8.8544913967335841
  5.3247556853621241  3.4873406174110775  8.8221204996749343
  7.0866042845729407  7.0656570604560365 -0.0136327618107357
 12.3191528646387418  7.0517474969807434  8.8874378002707548
  5.3407661038758407 -0.0067294961045760 12.2964624179115098
  3.5528965627754800  1.7729011826453673  5.2994144953956228
  1.7667504324779373  8.8676161790843153  7.0693138730260134
  3.5549297246713638  1.7697522985776724  8.8801372506374072
  1.7461680977377758 -0.0561175018786211  8.8553596147857050
  7.0977147206693694  3.5283611883255301  0.0602113665805608
  7.1093806767824077 12.3698010803203662  5.3148217756747753
 10.5332826480728645 -0.0336004678770684  7.0667276978014693
  5.3148692945671145 12.3321213079502385 -0.0615323406579183
  3.5671721686959263 12.3414615634129774  8.8757691242259469
  3.5529995281151430 10.6353223053810915  3.5487093973690058
  8.8627524729336322 10.6396851658575411  1.6864228669862666
  5.3120044389613907  7.0963942877814628  8.8670752666639423
 -0.0121679197768547 10.6508223283222296  3.4779079806191904
 12.3004122374286542  3.5295526168684233  1.7623086352226096
  1.7336267217423387 10.5877450339880550 12.3355537668584407
  1.7608043265499103 12.3306911252730806 10.6521466825644584
 12.2880951569804164  8.7906842246267036  7.0552164783042608
 10.5937447344533737 12.3322338804759486  1.7250992699899126
 12.2569898449743704  3.5493104726097715  5.3243246207572863
  8.8739001270113427 10.6029686996974899 12.3868554261518522
  8.7736775503292872 -0.0002716850075844 12.4160233696622040
  5.3077254930851563 -0.0741301882802864  3.5943893632955750
  5.2840523393075358  7.1407318589231581  0.1316908504508683
  5.2779191979513769  7.0654625249367333  7.1404596649959213
 10.5559239349979137 -0.0850174024575500 12.3525918521510718
