Cr Co Ni  H 
 1.0000000000000000
    14.1120004653999995    0.0000000000000000    0.0000000000000000
     0.0000000000000000   14.1120004653999995    0.0000000000000000
     0.0000000000000000    0.0000000000000000   14.1120004653999995
 Cr  Co  Ni  H  
  85  86  85   4
Cartesian
 10.6992182209770696  3.6152757922075951  7.1199033920694808
  8.8735083415041718  3.5330901878650711  5.2365412037016226
 10.7421050728334162  5.3759905242939894  5.2913951356535076
 -0.0085277405388235  7.0966376056436795 -0.0385838320850947
  8.7730756111783368  5.3976993879057371  7.0729830162908769
 12.3719182331159114  1.7887300317532961  7.1342882005314818
  5.2444797997496888  1.7525595476984792  0.0004583012323848
  3.5789610700216281  3.5155547141550505 10.5909527849193150
  5.3134563676249922  8.7780234394663879 -0.0511148431813655
 10.5978305939158819  1.7479474514045883 12.2675998751036204
  6.9943837145338756  5.4215162080394510  8.8744826188356640
 10.6591456243760341  5.4269544027681631  8.8725586491223112
  8.8193925084772715 12.2974065597007698  3.5494462077144484
  6.9707604723822296  3.5519505075727036 10.6055987247060681
  8.7925912884750179 10.5075467008890229  1.6942743918978920
  8.9055232400916857  1.7458712157091640  7.1017253346197968
  3.4096146412165069  7.0550093879759421 -0.0683144497969865
  8.8810944707023900  5.4341961350192811  3.5007463146692692
  0.0273260273979599  1.7638881991178716  8.8770065564944467
 10.5468137151085486 10.5418445008695230  7.1306997105650414
  7.0251132158614560  7.1834333190498505  3.4942262089198151
  7.1015089591918139 -0.0902797565775141 -0.0185895691765480
  3.4391208855290172  1.8022928395659510  5.3509029630914711
  5.2044329236043945 -0.0954443320503770 12.3566969577184782
 10.6768624059712050  7.1728545617661963  7.0601465881775836
 10.7261200061500439  7.1232905462418952  3.4415021380765891
 12.3398905779136072 10.5682648973468467  5.3326099798861755
 -0.0314214752136320  5.2940551117178645 12.2647814012209047
  7.0048962298813233 -0.0000469948823965 10.5718468753235779
 12.4038011583464360 12.2577165157795314  3.4997358680380177
 12.3848471394251494  1.8702493472140647 -0.0400475670144429
  5.2208943586961745  7.1787767345276885  5.3341873389681336
  7.0239333975243081  1.7625162895709168  5.2741413390455074
  5.2247701425087740  1.7253491157768150  3.4948191484174820
 12.3494836307090097 12.3159670152957368 10.5262603801104149
  3.4594008337543354  8.8515538807832925  1.7127238848008040
  8.8936130183738804  8.8309228903294894  3.5589314310689706
 10.5855167423728478 -0.0979128767319491 -0.0507636991781766
  5.2437952965116983  5.3811226581277536 -0.0076234571494148
  8.8461429111089842 -0.0238538542138308  8.9085562952665782
  7.0493614212268723  1.7586336003397969  1.7964819362159925
  3.5372177106979650 10.6108618196301325  3.5141419566257142
  7.0674497706429742  1.7999521228343318 12.3098401221446263
 12.3999258173153688 -0.1012053034269566  5.2734411376708534
  3.4602723947845702  3.5446177470661109  3.4708118044664564
  7.0234722074671900  5.3248647198646255  5.2920300262173834
  6.9854205034722474 10.5282169630653168  3.5864302914647856
  8.8391748263246530 -0.0766093147571748  5.2931015857883716
  8.8642393879894072  3.5661000791464037  1.7766884175890409
  3.5198082710735918 12.2547344834269687  8.8385558411635792
  8.7975872939345816  3.5135948523747214  8.8502243942390812
  3.5482094550811838  5.3428242808428870  8.8854450974190708
  5.2605440282335296  5.2988842387679798  3.4681797407004682
  1.7402739122648083  7.1057118301628988  5.2903933820317501
  7.0108033928823108  5.3748467687531569 12.3846543541035352
  3.4479164831797591  5.2681792927602640  5.3240912236533315
  0.0670398328521122 -0.1027699181101857  7.1591862688077308
  0.0136623074721653 -0.0645440718224482 -0.1110717062589589
  0.0433595451321453  1.8285266456330220 12.2835931203048734
  7.0777283190231310 12.2582431918804495 12.3100078799677473
  8.8342381447002261  5.4378917829009978 10.6224830581380729
  1.7129661448065014  8.8296332357994558  3.5210855530431893
  5.2794508234943969 12.4218203449796558  3.5650553566469547
  1.6862545326452165  1.7412426183177359  3.4924623845539577
  1.6570172712823585  3.5753789728016736  1.6931378113155935
 12.4620378458814507 -0.0338999594471013  1.7436968126705901
  7.0739386608725514 10.5253875019950982  7.0456190449362008
 10.6646698770355535  1.7410100425242954  5.1994591312038967
  7.0227066342347086 -0.0697085497728644  7.1235928855325081
  1.7318018099665835 -0.0435188937471044  1.7031287245920239
 10.6417206384752348  1.7445861038920600  1.8240094830358946
  5.2350862332461592  5.3270916661608867  7.0955166940673022
 -0.0193705983662936  8.8246854830988521  8.8763813559463909
  7.0462769029034176  5.3363266029623482  1.6739477453874030
  1.7179481924106883 12.3430003628872047  3.4999456080217168
  8.8546279597205846  1.7545905563017796 -0.0336169990531501
 10.6219632699136088 10.4825683556559337 10.5693010027313683
 10.7058553737344280  7.1108989614186022  0.0343195754390455
  0.0194761613102889  1.8442490123219728  5.3218832221505279
 10.6102234925816283 12.2619873318693884  1.7074814104034837
  1.8021736345661035 10.5818233951416207  5.3698607574670358
  5.2535190739065314 10.5781223926480674 12.3176741699752750
  0.0495073542904064 -0.0595954822008574 10.6197739493862500
  3.4302073660056718 -0.0026640085837607  7.0987884569964468
 10.6376577237324437  3.6044467010931598 10.5948931568423550
  1.7616005921462219  7.1167282529663236 12.2166258722160066
  5.2757605521005697 -0.0168868747181612  5.3794375778600001
  0.0327584754315872 10.5952888787175503 10.6366499295893409
  3.4974319497754474  1.7359483515409331  1.6754568592374111
  3.5151976118366268  7.1422055911011224 10.6097980458871035
  1.7802598316568148  8.8456863281581306  7.1379516007575319
 12.5205336153427975  7.1577005331597361  5.2885332143373178
  0.0690595516376729 12.2188591686365129 12.3738113140508670
  8.8526734999093577 -0.0704096296052144 12.2247941236863404
 12.4238840041023604 10.4930629228217711 12.3884379907684821
  5.1956237346154648  3.5199495024242875 12.4108384579529023
 12.5381161874397886  5.3252889977531499  7.0923592186738462
  3.5283390761248157  8.8179537250102893  5.3466580313206480
 10.5044078939953351 12.2624051335194046 12.3452635400005537
  0.0033770748232499 -0.0331107507437510  3.5304385091688144
 -0.0816594037198212  5.3150319585613808  1.7694321931122254
  1.7737178752765861  7.0665913331223837  8.8666444280338297
  7.0136107322084049  8.7798457420527924  8.8753627688968013
  6.9797444913363353 12.2346028630049304  8.8921038331207143
 10.6960670633957093  5.3683303157980253 12.3687570836372895
  1.6734426201781669 -0.0960962775194929  5.2937861522543290
  7.0759035013236247  3.5351776640609200 -0.0407359180849546
  5.2357112562220385  7.1105936440718933  1.7964944187219647
  3.4392900615150133  7.1900318974833244  7.1710305140323749
 10.7066026648248513  3.5706223705458742  3.5332451075579101
  1.7519130955444397  1.7345354720665338  0.0044075508713593
  8.7906099554920853  8.7677941091942859 10.6096724784529144
 12.3523584269254041  5.2021345713340779  0.0341257604592395
  0.0371249852688686 10.5600194087299517 -0.0297172816679310
  8.8410417503550267  7.1446907473146348  1.6439794924103672
  3.4855100524953735  0.0088960586170990 10.5605902168729084
 -0.0231397055483309  8.8653954309997047  5.4017858525553892
  3.4615067833775619 10.5003177239671004 10.6087564825976237
  5.2827619491076607  1.8326156274352303  7.1048224534038882
 10.7048473144373837 -0.0181090724540991  7.0749802198794525
  8.8584385507175103 12.2366022257093086 10.5786808380302340
  5.2714267858816992 12.2819892172769318  7.0474668561761931
  0.0104484188050825 10.5329937547015486  3.4827207159539824
  0.0311252805233945 12.2841287147332583  5.3399815311025227
  8.7394874118586703 10.4891355072748116  8.9162103983869621
  5.2839498939899210  3.5433226550614090  5.3621449310756004
  5.3478015312207079 10.6258418350585710  1.6739747934824545
 12.4101731562171285 10.5037299383369280  1.6851934198629945
 -0.1004749823130382  5.2331300356914232  5.2127264476684285
  7.0656898658509038  3.4993907006486826  7.0674799676884996
  8.7638237613765657  7.1509961298982558  5.3714955981067281
  8.8636323647280584  7.1553027251010350 12.3870590533120097
  7.0294745559118095 12.3439944547006064  1.6889524427575333
  0.0373899257632247  8.8675104610882958  1.7314350794260562
  3.4552208186903175  5.3477311300462427 12.2451762582839070
  1.8051154345264229 12.2279952482350218 -0.0823146092102931
  3.4947831677480647  7.0732633799159297  3.4774415979020019
  1.7715476955628393  3.6088665472601740 12.2966384950050482
  8.7804587270426300  8.8080428943046822 -0.0644891756233991
  1.8613368117589757  1.7611238745827560 10.5882634396016986
  8.7790075187788190  7.2505199924548052  8.8572703800560433
  0.0283969289366448  8.8519319686275519 12.2723676650165974
 10.6048603722665327  8.8161719280957573 12.3519426609373433
 10.6175719524117049  3.6485723453905750 -0.0756288808609747
  8.8294672479686938  1.7875512280720152 10.5666538510702939
 10.6725195162201736  1.7452358914251480  8.9341563206948731
  3.4310357088717209  8.8136098148486468 12.2822885634422221
  3.5100633777020880  3.6565998442663767  0.0181836227649595
  8.8950409628320557  5.3314060830419718 -0.0640316165801355
  5.2538003956538102  0.0485785611238423  8.8484335551148181
  3.4645249360902124  1.6833093126655936 12.3232799956126353
 -0.0045098121740969 10.6514050184886528  7.1232692612973576
  3.5573667185155271 12.2925383016800929  1.6276238448882163
  5.1888018836976473 10.4979329493006652  5.3720909784476643
  3.4599706894402100  5.3834886300390519  1.7776550532294744
  8.8272133586054409 10.4715161237991126 12.3635100865503098
 12.4615691475076531  8.8846419043379861  3.4783731319063316
  1.7599311967202844  5.2266070485692113  7.2092217349573042
  8.8762013533517461  3.6162050688044518 12.4046221429295258
 -0.0708207416066135  7.0583382349544381  3.4910640733433276
  5.3057356898866450  3.4423739234684847  8.7739640258123970
  1.6770495421524945  6.9690587358815730  1.7985370458209249
  5.2217589236825219  8.8605378993641111  3.4869326875415374
  1.7021714704521858  8.8813136446097971 -0.0699506245974660
  1.7635717952254293 12.2495694894188354 10.6493371664255623
 12.3607018029034226  1.7313983191491167 10.5640200090187992
 12.3296248756164353 -0.0521061717159882 12.3289485062770581
  7.1055953614544114  8.8053404398097630 12.2947548006281284
 10.6079591731880374 10.5031623060482353 -0.1184242641297191
 10.6189347216591923 -0.0344270034722307  3.4823886014842835
  1.7295341518893903  3.5434197250259962  8.8241975312636107
 10.6196926561414084  8.7770124464638517  5.2882859130643167
 -0.0059398973736924 12.2488325164275622  1.6898781444875410
  5.2423064293156214  3.5523419898213269  1.7032634049425341
 10.6157828690069564 12.2825053370413464  8.8846940535092926
  7.0068747975479599  8.8119815749754977  1.7268737293084540
  0.0206731186579147  7.0818342031618942 10.5841602391816760
  1.7451149679653242 10.6009472267632550  1.7118361476184074
  7.0244565665797536  7.1438154836971819  7.0740880275228397
  1.6913615027066038  3.6087256310577431  5.3210064646706012
  1.7429187137133568 12.2909594184715285  7.0964520210971660
  5.2657717691583876  8.8184586684736264 10.5997336648053668
  3.5280198316479026 10.5385178064459399  7.0870911879224936
 10.5957359777810005 -0.0206179137695443 10.6280630894842254
 12.4383703623761122  7.1169549448166540  1.7542330595319067
  8.8092679240750815  8.7894149328609430  7.0645769121457054
 12.4311721687688816  1.7393660353677058  3.5093424088394083
  1.7835434849349701 -0.0439203280513757  8.9044931646936920
 12.3673405551405349  5.3621823427944610 10.5757510926695719
  8.8339935029871199 12.2814563936298313 -0.0473624981439764
 12.3677326439032420  3.5429944739985442  1.7672791670340169
  5.2505544478134905  7.1360374780015681  8.8513341851215426
  5.2669270185357195 12.3034730477344194 -0.0105588059542092
  7.0159948848515929  3.5765547132448923  3.5304095978902259
 10.6340246437287167  5.2894727617126005  1.7469954426716603
 12.3707590643460428  3.5435918780788316  5.2982993517569712
 12.4247743137475837  8.8712688998128115 -0.0352811545854881
  7.0648410313031622 10.5624895554144818 -0.0299384650300707
 12.3738130316517712  7.1146607113214460 12.3088513940538657
 12.3926781378907478  7.0854736422639633  8.8647449925938222
  7.0293921040162104  8.8170063863093358  5.3131173492100467
 12.3908762611505896  5.2995966176200202  3.4831351811107516
  1.7720309740299003 10.5297235708409911 12.3235876051865603
  6.9999405015905598 12.3295730331667972  5.3222033695506443
  3.4698305742759943 -0.0569067760645192 -0.0244227517118968
  3.4859198168207057 -0.0126861672141070  3.5493033208558171
 12.3642105265386562 12.2636129355668118 -0.0265509982535178
  5.2426713584155396  1.7356601640601532 10.5941815203651259
 12.3917935175998615 10.5672381535085034  8.8270024631688457
  7.0328128495796056  1.7972305955611654  8.8127283497149467
 -0.0291649554887278  3.5607698126836307  3.5054052665219073
  7.0585620293903055 10.5151752908624374 10.5771819352762275
  7.0477381758179645 -0.0317241284396391  3.4951819642474526
  0.0159180270435390  5.3259817439690904  8.8660589743196390
 10.6597859235902526  8.8925067365485226  1.7118832751863955
  3.5030685583041326 10.5513179293311410 -0.0351595469747570
 12.3807192945247611  8.8194945196615144 10.6312334332069600
  3.4967633728641982  8.8406610668974537  8.8738545288108828
  1.7513662246960684  5.3165377184082514 10.5437945307910805
  5.2823420774539649 10.5223430937920259  8.8707643025220690
  5.2353300067364055  7.1187827712267806 12.2946539673175401
 12.3196989670046992 -0.0206000584051829  8.8506570138294069
 -0.0039666696924176  3.5820516247044853  7.1056153399338458
 10.6124147053475166  8.7884788188917060  8.8630033944371185
  1.8125474102153885 -0.0621398073732991 12.3350429535516231
  8.8583174762214529 10.5684909589785452  5.2818671846879814
  1.7056526422490101  5.3288699517004305  3.5101004391085202
  1.7561338477443831  8.8317265642674823 10.5795164325391156
  7.0777738406237924  7.1201262616895766 -0.0197844666546217
  0.0018064868607484  7.0939769602315428  7.1423512029209890
 12.4005136445914861  8.8323557740109511  7.0876338354613662
 -0.0085006882535275  3.5666366879558322 -0.0380782448716887
  3.4855796833158248 12.3008568054925735 12.2934804672772842
 10.6199678541070259  7.1380361393439236 10.6350612399273334
  3.4973808402792641  1.7637111321731231  8.8226399976595289
  7.0188232889968569  7.1323498006233095 10.6203977389689221
 12.4031824932187025  3.5805761273617507  8.8686364113898826
  5.2544464230335173 12.3070585743172476 10.5460644907539667
  0.0465519955385649 12.2838051209141490  8.8708468924310111
  5.2234260496518869 -0.0465932839932494  1.7036659244139072
  5.2394338084673810  8.8196931098943416  7.1191719244989322
  1.7220163562905368  1.8091517821771090  7.0974230028655541
  8.8426160218452203 -0.0472304429462261  1.7856991188288664
  8.7709635298792019 12.2760138657744271  7.0437248273176580
  8.8457473997398353  1.7553012765062936  3.5231660809439336
  3.5259833437458505 12.3624729469402350  5.3508360971569369
  1.7453794888043870 10.5660936341888565  8.8469016949095938
 12.3660950032381329 12.3361125096744022  7.1229351186503331
  3.4932945907963711  3.5174494311171958  7.1155874038632216
 10.6363577612294549 10.5277117154317281  3.5206401775995428
 -0.0329117778921169  1.7731007850993115  1.7198528862280662
 12.3640317034672815  3.5505864904303284 12.2798844152968076
  0.0239584141371630  3.5394134699390647 10.5411859542483253
  1.7411417716607660  5.3143724658336300 -0.0472300242799109
  5.2693205319303615  5.3637846521627166 10.6313761404886176
 10.5934952577276604 12.3533800875836377  5.2895937404630313
  9.7919927087893281 13.0570766111915848  7.8522975509933346
  0.7613932435405453  6.0445463996017796  6.2765254355060565
  2.6394453982129371  2.6826529400762547 13.2402358772767190
 12.3577808313379158 12.3177907608483554 12.4241266833912274
