Cu  H 
1.0
       10.3099279404         0.0000000000         0.0000000000
       -5.1549651591         8.9286588211         0.0000000000
        0.0000000000         0.0000000000        32.0000000000
   Cu    H
  144    4
Direct
     0.000000000         0.000000000         0.000000000
     0.998046160         0.002014134         0.196827143
     0.000738181         0.998561740         0.399854094
     0.000000000         0.499999970         0.000000000
     0.999463320         0.498840928         0.197531179
     0.998755097         0.498388678         0.395694137
     0.500000000         0.000000000         0.000000000
     0.501775742         0.000915346         0.196943983
     0.500442445         0.000318310         0.395585179
     0.500000000         0.499999970         0.000000000
     0.500661373         0.501010716         0.197058797
     0.500111520         0.499175936         0.394973814
     0.166666672         0.333333343         0.065765791
     0.166623205         0.334197849         0.263052791
     0.165738329         0.331653267         0.461296558
     0.166666672         0.833333373         0.065765791
     0.158404157         0.823374689         0.263982058
     0.166633949         0.832908094         0.460856557
     0.666666687         0.333333343         0.065765791
     0.668839276         0.335278749         0.263503104
     0.666619956         0.333144993         0.461333424
     0.666666687         0.833333373         0.065765791
     0.666325867         0.832948744         0.262774378
     0.667960405         0.833618820         0.460947514
     0.333333343         0.166666672         0.131531581
     0.335647762         0.169758007         0.329975247
     0.334121436         0.167499989         0.526470780
     0.333333343         0.666666687         0.131531581
     0.332106888         0.664645255         0.329113185
     0.333423465         0.666599691         0.525287747
     0.833333373         0.166666672         0.131531581
     0.831632197         0.167001754         0.329791963
     0.833577096         0.166130289         0.528149664
     0.833333373         0.666666687         0.131531581
     0.831345379         0.663115621         0.329400510
     0.832381248         0.665744185         0.526266932
     0.416666657         0.083333336         0.065765791
     0.425242960         0.096664429         0.262513340
     0.417753637         0.083428666         0.461286187
     0.416666657         0.583333313         0.065765791
     0.416454852         0.582830310         0.262815356
     0.416414380         0.583158851         0.459946364
     0.916666687         0.083333336         0.065765791
     0.915428638         0.084242642         0.263276696
     0.915435791         0.084167801         0.460989416
     0.916666627         0.583333313         0.065765791
     0.914317846         0.579220116         0.263622612
     0.916214049         0.581821382         0.461131006
     0.083333321         0.416666657         0.131531581
     0.082295083         0.417054474         0.329403341
     0.085275464         0.420137942         0.525503039
     0.083333321         0.916666627         0.131531581
     0.083326295         0.913289070         0.330394089
     0.085021541         0.914717436         0.526278079
     0.583333313         0.416666657         0.131531581
     0.583514452         0.416343987         0.329406977
     0.583406627         0.416621685         0.526698291
     0.583333313         0.916666627         0.131531581
     0.582347095         0.916021943         0.329451919
     0.579842985         0.914552987         0.525336921
     0.249999985         0.249999985         0.000000000
     0.251566529         0.252615094         0.197132751
     0.251561999         0.251513779         0.396059066
     0.249999985         0.750000000         0.000000000
     0.250130534         0.747682750         0.196749449
     0.249447793         0.748526275         0.395120978
     0.750000000         0.249999985         0.000000000
     0.750148654         0.250450164         0.197587252
     0.749866247         0.249648988         0.396101117
     0.750000000         0.750000000         0.000000000
     0.748846889         0.749400020         0.196941391
     0.748065650         0.747261226         0.395577341
     0.416666657         0.333333343         0.065765791
     0.417984426         0.336498827         0.263217717
     0.417905271         0.333727837         0.461122185
     0.416666657         0.833333373         0.065765791
     0.419975251         0.828311384         0.262133241
     0.416744381         0.832954466         0.460174233
     0.916666627         0.333333343         0.065765791
     0.916215241         0.332180381         0.263702571
     0.915607274         0.331918627         0.461843550
     0.916666627         0.833333373         0.065765791
     0.911980808         0.830185950         0.263577700
     0.914876997         0.831790805         0.462369502
     0.083333321         0.166666672         0.131531581
     0.087615252         0.175876543         0.328818709
     0.082679167         0.166545928         0.528131187
     0.083333321         0.666666687         0.131531581
     0.080196962         0.663229823         0.330037355
     0.083348520         0.666431963         0.525905907
     0.583333313         0.166666672         0.131531581
     0.584916651         0.168137625         0.330025047
     0.584045053         0.166969404         0.526441514
     0.583333313         0.666666687         0.131531581
     0.581572056         0.664662302         0.328828871
     0.583430231         0.666598201         0.525280714
     0.249999970         0.000000000         0.000000000
     0.254355073         0.002771985         0.196273163
     0.251855761         0.000676650         0.396373987
     0.249999970         0.499999970         0.000000000
     0.250375956         0.499966025         0.197174206
     0.249464080         0.498966485         0.394949883
     0.750000000         0.000000000         0.000000000
     0.749529839         0.000188448         0.197324321
     0.747787952         0.999346077         0.395749658
     0.750000000         0.499999970         0.000000000
     0.749928951         0.500205100         0.197312713
     0.749353886         0.498588741         0.395519376
     0.166666672         0.083333336         0.065765791
     0.169373602         0.089630321         0.263888806
     0.167689979         0.084809020         0.462553799
     0.166666657         0.583333313         0.065765791
     0.164957523         0.579859316         0.263173550
     0.166486397         0.582716346         0.460239828
     0.666666687         0.083333336         0.065765791
     0.668443739         0.084262736         0.263533652
     0.667593718         0.083975516         0.461688459
     0.666666687         0.583333313         0.065765791
     0.666332126         0.583060741         0.263092607
     0.666082978         0.581775606         0.460913748
     0.333333343         0.416666657         0.131531581
     0.333930701         0.417691857         0.329097748
     0.333358198         0.416603208         0.525492311
     0.333333343         0.916666627         0.131531581
     0.332396269         0.916642070         0.331537426
     0.333499700         0.916496158         0.525917947
     0.833333373         0.416666657         0.131531581
     0.832460284         0.415016085         0.329863548
     0.832915127         0.415899098         0.526430547
     0.833333373         0.916666627         0.131531581
     0.823299110         0.910957813         0.328555435
     0.833191335         0.916958034         0.527940452
     0.000000000         0.249999985         0.000000000
     0.000051728         0.250731975         0.197332740
     0.999718189         0.251562148         0.395781636
     0.000000000         0.750000000         0.000000000
     0.998039007         0.746024609         0.196718693
     0.998848438         0.746868610         0.396223962
     0.500000000         0.249999985         0.000000000
     0.501718938         0.252569646         0.197047114
     0.500681043         0.250013888         0.395727217
     0.500000000         0.750000000         0.000000000
     0.500395000         0.749663413         0.196810439
     0.499521166         0.749076784         0.394690365
     0.337122351         0.921633959         0.278906912
     0.666510999         0.332628012         0.556375206
     0.995195150         0.003570693         0.348404080
     0.091327645         0.923169911         0.230981857
