Cu  H 
 1.0000000000000000
    14.5804395675999992    0.0000000000000000    0.0000000000000000
     0.0000000000000000   14.5804395675999992    0.0000000000000000
     0.0000000000000000    0.0000000000000000   32.0000000000000000
 Cu  H  
 256   4
Selective dynamics
Cartesian
  0.0000000000000000  0.0000000000000000  0.0000000000000000   F   F   F
  0.0000000000000000  0.0000000000000000  3.6451098919999998   F   F   F
 -0.0008782307023581 -0.0049150638011231  7.2803000136061895   T   T   T
  0.0003802407116900  0.0150764549613646 10.9694027909368899   T   T   T
  0.0000000000000000  3.6451098919999998  0.0000000000000000   F   F   F
  0.0000000000000000  3.6451098919999998  3.6451098919999998   F   F   F
 -0.0141345012903292  3.6379370462031897  7.2925148770973625   T   T   T
 -0.0156410417308997  3.6276783163586135 10.8652408777828171   T   T   T
  0.0000000000000000  7.2902197839999996  0.0000000000000000   F   F   F
  0.0000000000000000  7.2902197839999996  3.6451098919999998   F   F   F
 -0.0128369291083206  7.3067149273654710  7.2860849872327940   T   T   T
  0.0214952873206045  7.3087404458838776 10.9721355299865060   T   T   T
  0.0000000000000000 10.9353296760000003  0.0000000000000000   F   F   F
  0.0000000000000000 10.9353296760000003  3.6451098919999998   F   F   F
  0.0038823533225940 10.9424707254914289  7.2910836393151657   T   T   T
  0.0228450567950582 10.9683437334828131 10.9397555510151232   T   T   T
  3.6451098919999998  0.0000000000000000  0.0000000000000000   F   F   F
  3.6451098919999998  0.0000000000000000  3.6451098919999998   F   F   F
  3.6423705606791912 -0.0047908872117997  7.2849493736110080   T   T   T
  3.6430328733719510 -0.0038982766873865 10.9480801822966285   T   T   T
  3.6451098919999998  3.6451098919999998  0.0000000000000000   F   F   F
  3.6451098919999998  3.6451098919999998  3.6451098919999998   F   F   F
  3.6486963600238185  3.6277798393986380  7.2821123742570073   T   T   T
  3.6375026957197529  3.6222514277477820 10.9872854104084929   T   T   T
  3.6451098919999998  7.2902197839999996  0.0000000000000000   F   F   F
  3.6451098919999998  7.2902197839999996  3.6451098919999998   F   F   F
  3.6484139520371692  7.3047908581630230  7.2868855963302179   T   T   T
  3.6550980118429020  7.3081027545816886 10.9759010293689414   T   T   T
  3.6451098919999998 10.9353296760000003  0.0000000000000000   F   F   F
  3.6451098919999998 10.9353296760000003  3.6451098919999998   F   F   F
  3.6472970726629379 10.9394954986235362  7.2845262939323154   T   T   T
  3.6588870821479520 10.9510632552519844 10.9484072983916860   T   T   T
  7.2902197839999996  0.0000000000000000  0.0000000000000000   F   F   F
  7.2902197839999996  0.0000000000000000  3.6451098919999998   F   F   F
  7.2891142526030439 -0.0074046409952929  7.2843269199678842   T   T   T
  7.2819905673219036 -0.0193476043534424 10.9489427452492993   T   T   T
  7.2902197839999996  3.6451098919999998  0.0000000000000000   F   F   F
  7.2902197839999996  3.6451098919999998  3.6451098919999998   F   F   F
  7.2832049053542196  3.6166095898993480  7.3202626276205338   T   T   T
  7.2651005451088002  3.6158966920134734 10.9300614050330189   T   T   T
  7.2902197839999996  7.2902197839999996  0.0000000000000000   F   F   F
  7.2902197839999996  7.2902197839999996  3.6451098919999998   F   F   F
  7.2847450947416661  7.3036135554821833  7.3280616618052115   T   T   T
  7.2799874115474683  7.2923521742487152 10.9371480714883038   T   T   T
  7.2902197839999996 10.9353296760000003  0.0000000000000000   F   F   F
  7.2902197839999996 10.9353296760000003  3.6451098919999998   F   F   F
  7.2918637885592625 10.9435085210167315  7.2960738632973028   T   T   T
  7.2883918570207307 10.9479541447890654 10.9538072021042474   T   T   T
 10.9353296760000003  0.0000000000000000  0.0000000000000000   F   F   F
 10.9353296760000003  0.0000000000000000  3.6451098919999998   F   F   F
 10.9355673446425090 -0.0073935507310627  7.2848417504584209   T   T   T
 10.9355312313611268 -0.0015505357668288 10.9588149959201022   T   T   T
 10.9353296760000003  3.6451098919999998  0.0000000000000000   F   F   F
 10.9353296760000003  3.6451098919999998  3.6451098919999998   F   F   F
 10.9357713727969248  3.6396436052498773  7.2989474403025740   T   T   T
 10.9362659356036183  3.6036860029986184 10.9497649440051390   T   T   T
 10.9353296760000003  7.2902197839999996  0.0000000000000000   F   F   F
 10.9353296760000003  7.2902197839999996  3.6451098919999998   F   F   F
 10.9616760143564456  7.2967821163009408  7.3277769103704404   T   T   T
 10.9453059515832489  7.2867011124289229 11.0182573247760516   T   T   T
 10.9353296760000003 10.9353296760000003  0.0000000000000000   F   F   F
 10.9353296760000003 10.9353296760000003  3.6451098919999998   F   F   F
 10.9409003986873969 10.9421892352844310  7.3031164442588024   T   T   T
 10.9375696843453198 10.9568611748159146 10.9492172657498106   T   T   T
  0.0000000000000000  1.8225549459999999  1.8225549459999999   F   F   F
 -0.0022719537000164  1.8216152523867615  5.4666194110827959   T   T   T
 -0.0050119309286577  1.8007132508344574  9.1040776374237957   T   T   T
  0.0110915253045834  1.8345459498199168 12.7607762217793397   T   T   T
  0.0000000000000000  5.4676648380000001  1.8225549459999999   F   F   F
 -0.0082337773774237  5.4693685386174380  5.4703670927016077   T   T   T
 -0.0587880074463055  5.4890207969382701  9.1296474899764029   T   T   T
  0.0394539826275111  5.4084894882485370 12.7599421092050331   T   T   T
  0.0000000000000000  9.1127747299999999  1.8225549459999999   F   F   F
 -0.0035171202370261  9.1166089652042430  5.4674170424506681   T   T   T
  0.0077356368710373  9.1257238394642037  9.1253572186571361   T   T   T
  0.0978310338468399  9.2191810250642359 12.7345244646801135   T   T   T
  0.0000000000000000 12.7578846220000006  1.8225549459999999   F   F   F
 -0.0001223971935716 12.7575534869159704  5.4644321215613934   T   T   T
  0.0039341049849812 12.7729678788304088  9.1175316762095608   T   T   T
  0.0020284968062084 12.7603284587045707 12.7256566387060825   T   T   T
  3.6451098919999998  1.8225549459999999  1.8225549459999999   F   F   F
  3.6419440234424987  1.8151886582500891  5.4633956710426927   T   T   T
  3.6471112027738712  1.8082668809558442  9.1177502421586976   T   T   T
  3.6419243023962662  1.8077133214989975 12.7327544075670556   T   T   T
  3.6451098919999998  5.4676648380000001  1.8225549459999999   F   F   F
  3.6481944146681453  5.4664200666691221  5.4699458665003622   T   T   T
  3.6839220434324949  5.4661742614094386  9.1296769152483837   T   T   T
  3.6467257192497380  5.4638510871586865 12.7209357206097007   T   T   T
  3.6451098919999998  9.1127747299999999  1.8225549459999999   F   F   F
  3.6437238760336372  9.1198473987620954  5.4649318095277035   T   T   T
  3.6557950505043775  9.1261578080558508  9.1161862701983267   T   T   T
  3.6426075920318564  9.1239205237822265 12.7327788947249783   T   T   T
  3.6451098919999998 12.7578846220000006  1.8225549459999999   F   F   F
  3.6444489358777856 12.7586792521135575  5.4637123498168796   T   T   T
  3.6474216443432290 12.7599256776042882  9.1125715713645654   T   T   T
  3.6549007485252716 12.7762776167925605 12.7276804303120628   T   T   T
  7.2902197839999996  1.8225549459999999  1.8225549459999999   F   F   F
  7.2885932819341726  1.8227493913979280  5.4702862008319739   T   T   T
  7.2786562262791463  1.8013768720262489  9.1145974990797303   T   T   T
  7.2488680095817717  1.7705965817134204 12.7179881059116191   T   T   T
  7.2902197839999996  5.4676648380000001  1.8225549459999999   F   F   F
  7.2165888725098162  5.3917840531556323  5.5641264241077133   T   T   T
  7.2748274306168277  5.4589995484915450  9.1146407384396486   T   T   T
  7.3059710664980262  5.4508116861659603 12.7088548961011067   T   T   T
  7.2902197839999996  9.1127747299999999  1.8225549459999999   F   F   F
  7.2870960642620668  9.1324140245648060  5.4856878159544831   T   T   T
  7.2885636241771126  9.1257308822141727  9.1303847896530659   T   T   T
  7.2832829549108418  9.1290222238518428 12.7164959907984887   T   T   T
  7.2902197839999996 12.7578846220000006  1.8225549459999999   F   F   F
  7.2921434973531403 12.7535879851370346  5.4649139752284608   T   T   T
  7.2897627952847861 12.7578402328138711  9.1160245702988671   T   T   T
  7.2883430077357225 12.7641309804312471 12.7332534301368376   T   T   T
 10.9353296760000003  1.8225549459999999  1.8225549459999999   F   F   F
 10.9386164303864533  1.8191560788717762  5.4698271228759268   T   T   T
 10.9310124792962426  1.8026712902709863  9.1119385995372575   T   T   T
 10.9321905455826371  1.8363049985679378 12.7213002332587557   T   T   T
 10.9353296760000003  5.4676648380000001  1.8225549459999999   F   F   F
 10.9544046905649495  5.4616761295655127  5.4872434598477726   T   T   T
 10.9425098443205648  5.4684452714085419  9.1462499200991783   T   T   T
 10.7439396634155262  5.2630709832742975 12.7814607157979054   T   T   T
 10.9353296760000003  9.1127747299999999  1.8225549459999999   F   F   F
 10.9561414479624659  9.1332695915276751  5.4787366442898957   T   T   T
 10.9467272894858798  9.1190774987729224  9.1472880625017439   T   T   T
 10.9236878392063161  9.1690389831055317 12.7171002559652653   T   T   T
 10.9353296760000003 12.7578846220000006  1.8225549459999999   F   F   F
 10.9354268239134793 12.7536251174930548  5.4674956998193629   T   T   T
 10.9373080257064395 12.7650375046531295  9.1213395318287311   T   T   T
 10.9428265963636822 12.7608604119400528 12.7286779368926180   T   T   T
  1.8225549459999999  0.0000000000000000  1.8225549459999999   F   F   F
  1.8212428607765057 -0.0004845614161661  5.4643042940705255   T   T   T
  1.8224358269623051 -0.0035991463576608  9.1131762755527035   T   T   T
  1.8209982723867959  0.0024557377644243 12.7243897067330067   T   T   T
  1.8225549459999999  3.6451098919999998  1.8225549459999999   F   F   F
  1.8194351587147615  3.6424185734155765  5.4695869876479613   T   T   T
  1.8352733346070660  3.5953451154610732  9.1084767465859411   T   T   T
  1.7970628664606421  3.6142805691937987 12.7559639242313612   T   T   T
  1.8225549459999999  7.2902197839999996  1.8225549459999999   F   F   F
  1.8220141137093828  7.2941424688462897  5.4686955592162798   T   T   T
  1.8321936610787237  7.3438568890143667  9.1191783747824697   T   T   T
  1.8039702982329759  7.3017885739801187 12.7255217665927134   T   T   T
  1.8225549459999999 10.9353296760000003  1.8225549459999999   F   F   F
  1.8211964765173281 10.9361333316211287  5.4667044412873729   T   T   T
  1.8312413339054332 10.9477131410908601  9.1104107367323994   T   T   T
  1.8686859620350260 10.9881239417770882 12.7206448449888647   T   T   T
  5.4676648380000001  0.0000000000000000  1.8225549459999999   F   F   F
  5.4679698324002581 -0.0010156491802424  5.4645157220283398   T   T   T
  5.4631535649804874 -0.0109848847624753  9.1150217280857522   T   T   T
  5.4530483595459120 -0.0163147125454612 12.7293699552427491   T   T   T
  5.4676648380000001  3.6451098919999998  1.8225549459999999   F   F   F
  5.4522794849647997  3.6242138893327249  5.4714544958044327   T   T   T
  5.4479676224692257  3.6264989339256384  9.1275446554782675   T   T   T
  5.4792669960540641  3.6337618054895842 12.7233946192220220   T   T   T
  5.4676648380000001  7.2902197839999996  1.8225549459999999   F   F   F
  5.4541121619315582  7.2996608671952936  5.4822669373194088   T   T   T
  5.4577198828440894  7.3019094028133633  9.1289823080332972   T   T   T
  5.4807912275213670  7.2896949674600782 12.7230435077976587   T   T   T
  5.4676648380000001 10.9353296760000003  1.8225549459999999   F   F   F
  5.4656646090171268 10.9386889765781046  5.4662159860939363   T   T   T
  5.4681027502207353 10.9415378188140409  9.1155888189511209   T   T   T
  5.4659015697007671 10.9457758335484652 12.7305222058214405   T   T   T
  9.1127747299999999  0.0000000000000000  1.8225549459999999   F   F   F
  9.1130913768203143  0.0001312931808333  5.4662361485776660   T   T   T
  9.1101171377938588 -0.0140246515863313  9.1134074171294195   T   T   T
  9.1162857482990258  0.0061596700769663 12.7290753057657700   T   T   T
  9.1127747299999999  3.6451098919999998  1.8225549459999999   F   F   F
  9.1192531107015622  3.6256928606139023  5.4875489499913375   T   T   T
  9.1130289484513138  3.6231408388688822  9.1259773105587296   T   T   T
  9.0195700590990544  3.5428804033802335 12.7141934595746893   T   T   T
  9.1127747299999999  7.2902197839999996  1.8225549459999999   F   F   F
  9.1927906756868296  7.3690643049125777  5.5642642175218384   T   T   T
  9.1247355279162203  7.2920956840745639  9.1392978369455733   T   T   T
  9.0605872924850832  7.2978072788126624 12.7073588461910205   T   T   T
  9.1127747299999999 10.9353296760000003  1.8225549459999999   F   F   F
  9.1167984228065215 10.9302872622206877  5.4719827079459851   T   T   T
  9.1150162996429316 10.9464924400033095  9.1288814208105649   T   T   T
  9.1033250090878610 10.9526505087377668 12.7221002529845464   T   T   T
 12.7578846220000006  0.0000000000000000  1.8225549459999999   F   F   F
 12.7574034659123807 -0.0007774151639888  5.4657923825933112   T   T   T
 12.7584411923278758 -0.0105972903761637  9.1167521885603495   T   T   T
 12.7589715901443004  0.0114639759644128 12.7250502176735463   T   T   T
 12.7578846220000006  3.6451098919999998  1.8225549459999999   F   F   F
 12.7578306200639702  3.6406969349562743  5.4698028988905012   T   T   T
 12.7371023329905118  3.6425678465074158  9.1211464652125471   T   T   T
 12.8043466076548800  3.5851492139534638 12.7583896455325831   T   T   T
 12.7578846220000006  7.2902197839999996  1.8225549459999999   F   F   F
 12.7520026056459326  7.2959583325801649  5.4700698197143618   T   T   T
 12.7576417206760109  7.3078778320355369  9.1472912381419960   T   T   T
 12.9533312519696082  7.4955196157102328 12.8074908451839633   T   T   T
 12.7578846220000006 10.9353296760000003  1.8225549459999999   F   F   F
 12.7615123244605559 10.9383240194593352  5.4707423493017941   T   T   T
 12.7677280701279923 10.9541916843546243  9.1185398404582507   T   T   T
 12.7710242607221947 10.9297616505600494 12.7279423225821802   T   T   T
  1.8225549459999999  1.8225549459999999  0.0000000000000000   F   F   F
  1.8225549459999999  1.8225549459999999  3.6451098919999998   F   F   F
  1.8201735909341450  1.8144892106096504  7.2819728143068598   T   T   T
  1.8186061652758607  1.8168379324746329 10.9464333580939766   T   T   T
  1.8225549459999999  5.4676648380000001  0.0000000000000000   F   F   F
  1.8225549459999999  5.4676648380000001  3.6451098919999998   F   F   F
  1.8189639692394126  5.4692888713629175  7.2608986302827656   T   T   T
  1.8253315913667891  5.4578298724352674 10.9968235429869363   T   T   T
  1.8225549459999999  9.1127747299999999  0.0000000000000000   F   F   F
  1.8225549459999999  9.1127747299999999  3.6451098919999998   F   F   F
  1.8231711345601962  9.1209859988693527  7.2846839201707603   T   T   T
  1.8487476682956563  9.1391063256633327 10.9457544853736533   T   T   T
  1.8225549459999999 12.7578846220000006  0.0000000000000000   F   F   F
  1.8225549459999999 12.7578846220000006  3.6451098919999998   F   F   F
  1.8231029556180554 12.7596697615529404  7.2830234564873910   T   T   T
  1.8304217870769572 12.7751795009441143 10.9449819569146136   T   T   T
  5.4676648380000001  1.8225549459999999  0.0000000000000000   F   F   F
  5.4676648380000001  1.8225549459999999  3.6451098919999998   F   F   F
  5.4627749392248504  1.8070501114512021  7.2899329430331701   T   T   T
  5.4548969018079605  1.8005078939062074 10.9509161930301140   T   T   T
  5.4676648380000001  5.4676648380000001  0.0000000000000000   F   F   F
  5.4676648380000001  5.4676648380000001  3.6451098919999998   F   F   F
  5.4430783150142128  5.4641294651990640  7.3134312951503553   T   T   T
  5.4677676928758823  5.4623317701687473 10.9601878274613131   T   T   T
  5.4676648380000001  9.1127747299999999  0.0000000000000000   F   F   F
  5.4676648380000001  9.1127747299999999  3.6451098919999998   F   F   F
  5.4690695169239527  9.1231937420380120  7.2931097179388891   T   T   T
  5.4676547828805839  9.1265208682546177 10.9593916911550622   T   T   T
  5.4676648380000001 12.7578846220000006  0.0000000000000000   F   F   F
  5.4676648380000001 12.7578846220000006  3.6451098919999998   F   F   F
  5.4682477661572193 12.7574014754762288  7.2838834449682617   T   T   T
  5.4687071265432579 12.7579589545490748 10.9515045165369411   T   T   T
  9.1127747299999999  1.8225549459999999  0.0000000000000000   F   F   F
  9.1127747299999999  1.8225549459999999  3.6451098919999998   F   F   F
  9.1117029610639602  1.8080210680267417  7.2944395942806226   T   T   T
  9.0956830272280005  1.7879586657916935 10.9350210202214591   T   T   T
  9.1127747299999999  5.4676648380000001  0.0000000000000000   F   F   F
  9.1127747299999999  5.4676648380000001  3.6451098919999998   F   F   F
  9.1246423000919243  5.4580667012071657  7.3294012418632306   T   T   T
  9.0821339443210753  5.4408368684470156 10.9296994762075173   T   T   T
  9.1127747299999999  9.1127747299999999  0.0000000000000000   F   F   F
  9.1127747299999999  9.1127747299999999  3.6451098919999998   F   F   F
  9.1216607148235873  9.1370566063807175  7.3286083060230034   T   T   T
  9.1137053056025046  9.1202566164496144 10.9559997127007502   T   T   T
  9.1127747299999999 12.7578846220000006  0.0000000000000000   F   F   F
  9.1127747299999999 12.7578846220000006  3.6451098919999998   F   F   F
  9.1143155942908081 12.7550470853323770  7.2867763871970794   T   T   T
  9.1126363355312101 12.7661099222168062 10.9595206372487048   T   T   T
 12.7578846220000006  1.8225549459999999  0.0000000000000000   F   F   F
 12.7578846220000006  1.8225549459999999  3.6451098919999998   F   F   F
 12.7526998416268444  1.8165477265898591  7.2908855668439694   T   T   T
 12.7581912151577317  1.8067242230085307 10.9361886661447461   T   T   T
 12.7578846220000006  5.4676648380000001  0.0000000000000000   F   F   F
 12.7578846220000006  5.4676648380000001  3.6451098919999998   F   F   F
 12.7571724218818616  5.4715128650375169  7.2997265396272519   T   T   T
 12.7486953721120155  5.4765487888039646 11.0180837191395593   T   T   T
 12.7578846220000006  9.1127747299999999  0.0000000000000000   F   F   F
 12.7578846220000006  9.1127747299999999  3.6451098919999998   F   F   F
 12.7623415347486784  9.1258557221238856  7.3030464129733490   T   T   T
 12.7822319164291507  9.1568210117963371 10.9487061235371375   T   T   T
 12.7578846220000006 12.7578846220000006  0.0000000000000000   F   F   F
 12.7578846220000006 12.7578846220000006  3.6451098919999998   F   F   F
 12.7598089062697060 12.7600275264636576  7.2854624673080837   T   T   T
 12.7618436189343250 12.7624435997283818 10.9610714809386973   T   T   T
  8.2045794093356967  6.3808852005236947  4.7028029602684445   T   T   T
 11.8564087335050736  6.3767595409222375 12.3681242684033563   T   T   T
  1.8192858140548529  5.4840311293372199  9.1884262528098795   T   T   T
 -0.0264252569096384  3.6355343705240042 13.3683677453118932   T   T   T
