Cr Co Ni  H 
 1.0000000000000000
    14.1120004653999995    0.0000000000000000    0.0000000000000000
     0.0000000000000000   14.1120004653999995    0.0000000000000000
     0.0000000000000000    0.0000000000000000   32.0000000000000000
 Cr  Co  Ni  H  
  85  85  86   3
Selective dynamics
Cartesian
  1.7640000579999999  1.7640000579999999  3.5280001159999999   F   F   F
 10.5840003490000001  1.7640000579999999  1.7640000579999999   F   F   F
  7.4055282558646738  1.5654503351889997 14.0863881225930125   T   T   T
  0.0000000000000000  3.5280001159999999  0.0000000000000000   F   F   F
 10.7231086543989242  2.1109707614463775 14.3191906212231697   T   T   T
 10.5840003490000001  8.8200002909999995  5.2920001750000001   F   F   F
  0.0000000000000000  3.5280001159999999  3.5280001159999999   F   F   F
 12.6915603960436236  4.1460995086298613  9.9871754349273125   T   T   T
  1.7640000579999999  0.0000000000000000  1.7640000579999999   F   F   F
  7.3211845415410277  6.9039454768166788  7.6160559426849357   T   T   T
 11.6217080381020388  8.8189701329753216 12.0266077449056432   T   T   T
 -0.3840528597689267  8.9439074074228468 10.1064859907291051   T   T   T
  8.8200002909999995  5.2920001750000001  3.5280001159999999   F   F   F
 12.3714468023113788 12.6726937479328345  7.3624195423818568   T   T   T
  7.0560002329999998  5.2920001750000001  5.2920001750000001   F   F   F
  0.0000000000000000  1.7640000579999999  1.7640000579999999   F   F   F
 12.3480004070000007  1.7640000579999999  3.5280001159999999   F   F   F
  6.5296214668400854  4.7111241666305563 14.3759699759420361   T   T   T
 12.4578191913108220  5.9105183601932367  7.8767297504000684   T   T   T
  3.6974974493092243 10.8655821814223810 11.6882896392672411   T   T   T
  3.5280001159999999  8.8200002909999995  1.7640000579999999   F   F   F
  5.8999655070309496 12.7498924258760091  7.4828982549459013   T   T   T
  1.7640000579999999  8.8200002909999995  3.5280001159999999   F   F   F
  3.5280001159999999  5.2920001750000001  5.2920001750000001   F   F   F
  3.4362382172727570 -0.1375790215063283  7.4544329435618923   T   T   T
 12.0799839953441754  7.3001081642819354 14.3916068394110610   T   T   T
  5.2920001750000001  5.2920001750000001  0.0000000000000000   F   F   F
  7.0560002329999998 10.5840003490000001  3.5280001159999999   F   F   F
  8.6160702677539689  6.7161229155997075 13.9646417826880054   T   T   T
  5.3934355057127847  7.3887057246936436 14.2935470338810955   T   T   T
  7.0560002329999998  8.8200002909999995  1.7640000579999999   F   F   F
  4.0798547347096221  7.5955503782619562 11.8015799865454323   T   T   T
  3.4129495143771522  7.2095742795682689  7.6372995253754725   T   T   T
 10.5138513743871655 10.6520566064130371  7.4168770006282312   T   T   T
  8.8200002909999995  0.0000000000000000  1.7640000579999999   F   F   F
  9.3244488184406364 13.2156752420359229 12.2669374915242599   T   T   T
  3.0373596579603879 -0.3406971014696850 11.7962277492784064   T   T   T
  3.5280001159999999  8.8200002909999995  5.2920001750000001   F   F   F
  2.1100328692195824  5.7671197631075284 12.0814115570399263   T   T   T
  7.0560002329999998  1.7640000579999999  5.2920001750000001   F   F   F
  3.5926450232177780  4.9164917893902116 14.4253757317347624   T   T   T
  8.8200002909999995  3.5280001159999999  5.2920001750000001   F   F   F
 10.2426523867523560  8.5045198923854723  9.4132253651116660   T   T   T
 -0.0038995033124400 -0.2057044741826514 11.8415740661679134   T   T   T
 12.8816004728591853  0.2872697468446981  9.3829761843413841   T   T   T
  7.6748534694638773 11.1244158608777628 11.5469262989003969   T   T   T
  1.8848593915766036 10.4674395324461997  9.5347920256864818   T   T   T
  8.7087170915146839  3.5531396946497926  9.6035116644546417   T   T   T
  3.5280001159999999 12.3480004070000007  1.7640000579999999   F   F   F
  3.5280001159999999  1.7640000579999999  1.7640000579999999   F   F   F
 -0.2991721039118017 10.3080937839218407  7.5994994623540801   T   T   T
 10.5840003490000001  7.0560002329999998  3.5280001159999999   F   F   F
 10.5297884907705548  4.0337774670441728 11.6339971157159940   T   T   T
 12.6299742396226797  2.2081225685048391 12.0953647531637909   T   T   T
  0.0000000000000000  5.2920001750000001  1.7640000579999999   F   F   F
  7.0560002329999998  8.8200002909999995  5.2920001750000001   F   F   F
  7.0560002329999998  3.5280001159999999  3.5280001159999999   F   F   F
  5.2920001750000001  7.0560002329999998  5.2920001750000001   F   F   F
  2.9934727496707860  1.4653617688763234 14.5034293142952180   T   T   T
  5.2920001750000001  8.8200002909999995  3.5280001159999999   F   F   F
  3.5280001159999999  0.0000000000000000  0.0000000000000000   F   F   F
  0.5139091465877916  7.3956328211470517  7.7798593479870171   T   T   T
 10.5840003490000001  3.5280001159999999  0.0000000000000000   F   F   F
 12.3480004070000007  7.0560002329999998  5.2920001750000001   F   F   F
 12.3480004070000007  8.8200002909999995  3.5280001159999999   F   F   F
  1.7640000579999999  7.0560002329999998  1.7640000579999999   F   F   F
  5.2920001750000001  1.7640000579999999  3.5280001159999999   F   F   F
  0.0000000000000000  7.0560002329999998  3.5280001159999999   F   F   F
 10.5840003490000001  1.7640000579999999  5.2920001750000001   F   F   F
  1.7640000579999999  5.2920001750000001  3.5280001159999999   F   F   F
  0.0000000000000000  0.0000000000000000  3.5280001159999999   F   F   F
  3.8466468126664513 10.9359505474507603  7.5699512855863658   T   T   T
  3.7280354442323498  5.3373524397938992  9.6628204810248199   T   T   T
  0.0000000000000000  1.7640000579999999  5.2920001750000001   F   F   F
 -0.3462933711512335  3.4591065818111582  7.5563516607731014   T   T   T
  1.8928588590444879  2.0515692646761150  7.7293875892167065   T   T   T
 10.2370420157731470 12.6770715286765014  9.4798719857432499   T   T   T
  7.0560002329999998 10.5840003490000001  0.0000000000000000   F   F   F
  5.2920001750000001 10.5840003490000001  5.2920001750000001   F   F   F
  0.0000000000000000  5.2920001750000001  5.2920001750000001   F   F   F
  0.0000000000000000  8.8200002909999995  5.2920001750000001   F   F   F
  3.5280001159999999  3.5280001159999999  3.5280001159999999   F   F   F
  1.7640000579999999  3.5280001159999999  1.7640000579999999   F   F   F
 12.3480004070000007 10.5840003490000001  5.2920001750000001   F   F   F
  3.5280001159999999  7.0560002329999998  3.5280001159999999   F   F   F
  8.8200002909999995  8.8200002909999995  0.0000000000000000   F   F   F
 12.1327358126285496 12.2458441954991439 11.4201763281202133   T   T   T
  3.5280001159999999 10.5840003490000001  0.0000000000000000   F   F   F
 10.5840003490000001 10.5840003490000001  3.5280001159999999   F   F   F
  7.3653630335038898  9.0779722312220930 13.5047350344877479   T   T   T
  1.8444050854494776  5.0098124882073014  7.3128973175149712   T   T   T
  8.8200002909999995  0.0000000000000000  5.2920001750000001   F   F   F
  8.8200002909999995 10.5840003490000001  5.2920001750000001   F   F   F
  2.1220384590959842  7.8293463618117762  9.9664069603257772   T   T   T
  5.2920001750000001  8.8200002909999995  0.0000000000000000   F   F   F
  0.0000000000000000  7.0560002329999998  0.0000000000000000   F   F   F
 -0.2084104987414822 12.0116373157496383  9.6404627085249057   T   T   T
 10.5840003490000001  5.2920001750000001  5.2920001750000001   F   F   F
  1.7640000579999999  0.0000000000000000  5.2920001750000001   F   F   F
 10.5840003490000001  0.0000000000000000  3.5280001159999999   F   F   F
  1.7564621759141608  9.0260756414826648 12.1276604433013020   T   T   T
  3.5280001159999999  5.2920001750000001  1.7640000579999999   F   F   F
  5.2920001750000001 12.3480004070000007  3.5280001159999999   F   F   F
  8.7528185595473662  3.7480080426326907 13.4989404516594611   T   T   T
  3.5280001159999999  7.0560002329999998  0.0000000000000000   F   F   F
 11.0553413378402858  0.5305741071484127 11.0779993680951456   T   T   T
  5.2920001750000001  3.5280001159999999  5.2920001750000001   F   F   F
  1.7640000579999999  3.5280001159999999  5.2920001750000001   F   F   F
  7.1632019075317821  0.4308416855172606 11.4561037306427895   T   T   T
  8.8200002909999995  7.0560002329999998  5.2920001750000001   F   F   F
  8.8200002909999995  5.2920001750000001  0.0000000000000000   F   F   F
  8.8200002909999995  3.5280001159999999  1.7640000579999999   F   F   F
 10.2178767396181645  6.8506321086376962  7.1709294646519162   T   T   T
  9.9109381873798181  9.1668594785808963 13.9574083937668760   T   T   T
  1.7640000579999999  1.7640000579999999  0.0000000000000000   F   F   F
  5.3050262105811798  5.3765792144659512  7.3753160704958187   T   T   T
  7.0560002329999998  0.0000000000000000  3.5280001159999999   F   F   F
  8.9589207489834166  0.8317047357300535  9.6235582741703904   T   T   T
 12.3480004070000007 10.5840003490000001  1.7640000579999999   F   F   F
  1.7640000579999999 12.3480004070000007  3.5280001159999999   F   F   F
 12.3480004070000007 12.3480004070000007  3.5280001159999999   F   F   F
  2.4865499264568154  7.4636460147863897 14.0388821994380528   T   T   T
 -0.1671236423861658  1.2380534551537028 14.1249927380055631   T   T   T
 10.9618680494271192  3.8078297409045767  7.3490320352361849   T   T   T
  8.8200002909999995  1.7640000579999999  3.5280001159999999   F   F   F
  5.2920001750000001  1.7640000579999999  0.0000000000000000   F   F   F
  5.3457584167485495  5.0741115679098572 11.8380761890452089   T   T   T
  4.9687241955830270  1.5278866270492586 11.3385906607508762   T   T   T
 10.5840003490000001  7.0560002329999998  0.0000000000000000   F   F   F
  5.4387047412088609  8.7563632322651230  7.5133179974201685   T   T   T
 10.9926390018952045  2.2142338655264795  9.2685920038363623   T   T   T
 10.5840003490000001  3.5280001159999999  3.5280001159999999   F   F   F
  3.5280001159999999  3.5280001159999999  0.0000000000000000   F   F   F
  8.8200002909999995  1.7640000579999999  0.0000000000000000   F   F   F
 10.7766446537905374  4.9832340552331909 14.0938280003055247   T   T   T
  6.8175133818132982  3.4776829886332528  7.3773824336933274   T   T   T
  7.0560002329999998  5.2920001750000001  1.7640000579999999   F   F   F
  5.7552956887702234 11.0466975971932335  9.5816944283024181   T   T   T
  0.3727094111170826  3.9643911002811381 11.8547636005219506   T   T   T
  8.0028331753489059  5.1570806769324307 11.6777172006983267   T   T   T
  7.0560002329999998  0.0000000000000000  0.0000000000000000   F   F   F
  3.5280001159999999  0.0000000000000000  3.5280001159999999   F   F   F
  6.7570129430497783  7.1820199503872439 11.7865743683519764   T   T   T
 11.8300253380077525 -0.2133890366772322 13.3738424845173327   T   T   T
  1.5013295581636759  1.8829814012862025 12.3014589448137137   T   T   T
 12.2271748647928202  1.5569177213361511  7.2079225169087158   T   T   T
  8.8200002909999995 12.3480004070000007  0.0000000000000000   F   F   F
  0.0000000000000000 12.3480004070000007  5.2920001750000001   F   F   F
 10.3608946530211110  5.5240894247502093  9.2855929585268857   T   T   T
  1.7640000579999999  5.2920001750000001  0.0000000000000000   F   F   F
  1.7640000579999999  7.0560002329999998  5.2920001750000001   F   F   F
  5.2920001750000001  0.0000000000000000  1.7640000579999999   F   F   F
 10.5840003490000001  0.0000000000000000  0.0000000000000000   F   F   F
 -0.0353686376065538  7.4081432343281151 12.2385094146758604   T   T   T
  6.4727974067361007  4.8790306983937235  9.5663783706541032   T   T   T
  1.7640000579999999 10.5840003490000001  5.2920001750000001   F   F   F
  5.8327432167629318  9.3924807802686967 11.5138737580684136   T   T   T
  1.7640000579999999  8.8200002909999995  0.0000000000000000   F   F   F
  8.8200002909999995  8.8200002909999995  3.5280001159999999   F   F   F
 12.3480004070000007  5.2920001750000001  0.0000000000000000   F   F   F
  4.1887173452848314  9.1452580032527084  9.5664108149159581   T   T   T
  1.4877154538009352 12.1941233658530823  7.3161918050511359   T   T   T
  8.8200002909999995  7.0560002329999998  1.7640000579999999   F   F   F
  0.3465454907697551  8.7175285011419223 14.2616523538013471   T   T   T
  7.6271154350734633  0.4769689538505884  7.5754476806852491   T   T   T
 10.9739057650579177 11.4781206948082453 13.4793990486147521   T   T   T
  9.1579455182926779  1.8539842937382998 11.8729560675368653   T   T   T
  7.1063446139133362  8.9504223419500804  9.4905296253808356   T   T   T
  1.7640000579999999 12.3480004070000007  0.0000000000000000   F   F   F
  5.5737165142684546 12.7324326083384101 11.5140698746171637   T   T   T
 11.9332025773851509 10.6342078241841413  9.5094741879245017   T   T   T
  0.3895241934320942  5.8809179192868726 14.1282560960671972   T   T   T
  1.5417402832516489  4.0016914460935133  9.6067668244146827   T   T   T
  8.7996666262548917  8.8651943878957962  7.2006189529633895   T   T   T
  0.3511317680542532  2.0242788039782091 10.1640732637931297   T   T   T
  0.0000000000000000  8.8200002909999995  1.7640000579999999   F   F   F
  1.7640000579999999 10.5840003490000001  1.7640000579999999   F   F   F
 12.5657101247483673  5.4827136680922104 12.3849572824789362   T   T   T
 12.3480004070000007  5.2920001750000001  3.5280001159999999   F   F   F
  8.8200002909999995 12.3480004070000007  3.5280001159999999   F   F   F
 10.1678062738360673 10.7470496816963319 11.2704384984271968   T   T   T
  3.8013037043145252  3.5494759041270703  7.1296613941071296   T   T   T
  6.7906843013634024  1.9480424436756070  9.4364687717029128   T   T   T
 10.5840003490000001  8.8200002909999995  1.7640000579999999   F   F   F
  5.2920001750000001  0.0000000000000000  5.2920001750000001   F   F   F
 12.3571094154952146  9.9689998673569402 14.7447497679761010   T   T   T
  1.5004686304516222 -0.6761054643011574 13.9159643888639106   T   T   T
  5.8264472356318233 11.0278996377742278 13.5259375253265794   T   T   T
 -0.5150162355413458 10.3682001436060780 12.5523071901062568   T   T   T
  1.2764853296320011  3.5337551061207346 14.1014821098712861   T   T   T
  7.0149570889198234 10.4999711129467066  7.2931797992260616   T   T   T
 12.3480004070000007  7.0560002329999998  1.7640000579999999   F   F   F
  0.0000000000000000  0.0000000000000000  0.0000000000000000   F   F   F
  7.0560002329999998 12.3480004070000007  1.7640000579999999   F   F   F
  5.2920001750000001  3.5280001159999999  1.7640000579999999   F   F   F
  9.1066148205965227  2.2735360549679227  7.4174719284668837   T   T   T
  4.9917531211460098  2.8229314245069648 13.3733421188924684   T   T   T
  8.7921815192243749  8.6420744755506700 11.5913069352482552   T   T   T
  8.6557940821979553 12.4130172680814361  7.2131529450027312   T   T   T
  7.4969626250927313 12.9109702826086821  9.5694796490572696   T   T   T
  0.0000000000000000 12.3480004070000007  1.7640000579999999   F   F   F
  3.8055830172128546  9.5825611090628229 13.8874215808148929   T   T   T
  5.3558964436872269  1.5547536131522526  7.2862915520862108   T   T   T
 12.3480004070000007  1.7640000579999999  0.0000000000000000   F   F   F
  6.9364854609437847  3.0047164689902277 11.7759289174986872   T   T   T
  0.2298104898452533  0.1502646941954943  7.2149363185921214   T   T   T
  5.2920001750000001  5.2920001750000001  3.5280001159999999   F   F   F
 12.3480004070000007  0.0000000000000000  5.2920001750000001   F   F   F
 10.5840003490000001 10.5840003490000001  0.0000000000000000   F   F   F
 -0.6660080084143992 12.2742641751535491 14.1252956473106703   T   T   T
  3.3216945604341119  3.4897992238534212 11.6310433263018602   T   T   T
  5.2920001750000001  7.0560002329999998  1.7640000579999999   F   F   F
  7.0560002329999998  1.7640000579999999  1.7640000579999999   F   F   F
  7.1560620729474840 13.0991061528694868 13.7673192445155266   T   T   T
 12.3480004070000007  8.8200002909999995  0.0000000000000000   F   F   F
 12.9554744641864072  3.7663844470584698 14.1786767694807381   T   T   T
 12.3480004070000007 12.3480004070000007  0.0000000000000000   F   F   F
  0.0000000000000000 10.5840003490000001  0.0000000000000000   F   F   F
 10.5840003490000001  5.2920001750000001  1.7640000579999999   F   F   F
  7.0560002329999998  7.0560002329999998  3.5280001159999999   F   F   F
  8.3670140459006497  6.7477202250037500  9.9038565373664511   T   T   T
  5.2180934294668813  0.0606479514243257  9.4778166845553624   T   T   T
 12.3480004070000007  0.0000000000000000  1.7640000579999999   F   F   F
 10.1581397324959557  6.5620198303308115 11.8324676752157707   T   T   T
  0.3519826148824034  6.1170689922772823 10.1622565536417966   T   T   T
 10.5840003490000001 12.3480004070000007  5.2920001750000001   F   F   F
  8.7988329730849237  4.9202246264962959  7.3498519058985128   T   T   T
  3.5280001159999999 12.3480004070000007  5.2920001750000001   F   F   F
  5.2920001750000001 10.5840003490000001  1.7640000579999999   F   F   F
  3.7637438576095152 12.3311866327632806 13.9766966713705294   T   T   T
  8.6500377119212466 10.6992824782284934  9.1702571036910996   T   T   T
  4.6800301689281181  3.0346454617028824  9.3437881315101343   T   T   T
  7.0560002329999998  7.0560002329999998  0.0000000000000000   F   F   F
 12.1398751891492385  6.8532596078953443 10.3213813190458339   T   T   T
  5.1139767074660378  0.2290439566202457 13.4078858765757793   T   T   T
  3.5280001159999999  1.7640000579999999  5.2920001750000001   F   F   F
  2.0226353269215003  9.2725598210592377  7.2601793857479473   T   T   T
  2.8080307492937950  1.6065844557962996 10.0985895584386132   T   T   T
  1.4547918047214869 -0.3740137946404634  9.4301580863083228   T   T   T
  7.0560002329999998  3.5280001159999999  0.0000000000000000   F   F   F
  7.0560002329999998 12.3480004070000007  5.2920001750000001   F   F   F
 10.2929385587436695  0.1467451683776311  7.4009596220959599   T   T   T
  5.2920001750000001 12.3480004070000007  0.0000000000000000   F   F   F
  3.5621224644759484 12.4179333090064858  9.6078273654060506   T   T   T
  3.5280001159999999 10.5840003490000001  3.5280001159999999   F   F   F
  8.8200002909999995 10.5840003490000001  1.7640000579999999   F   F   F
  5.5295917276104030  7.1352822670104352  9.5845027233220748   T   T   T
  0.0000000000000000 10.5840003490000001  3.5280001159999999   F   F   F
 12.3480004070000007  3.5280001159999999  1.7640000579999999   F   F   F
  1.6646471671849490 10.8843645685059816 13.9039068307696816   T   T   T
  1.2522365675957288 11.7415781304556344 11.6155913327181981   T   T   T
 12.0527614060178241  8.4661732615201650  7.4321142388981922   T   T   T
 10.5840003490000001 12.3480004070000007  1.7640000579999999   F   F   F
 12.3480004070000007  3.5280001159999999  5.2920001750000001   F   F   F
  8.5393449723575117 11.1931297455770231 14.1309931556824200   T   T   T
  9.6607233592640611 -0.8281261319999713 14.8205858537414539   T   T   T
 10.4832976420153692  0.8378975403210500 12.6971457771298226   T   T   T
  1.7877173294561732  5.8089190555191275  9.2754464988023830   T   T   T
  0.1416755468028802  5.4270808765988843  7.1777567652754080   T   T   T
