Al  H 
 1.0000000000000000
    16.1521472486673723    0.0000000000000000    0.0000000000000000
     0.0000000000000000   16.1521472486673723    0.0000000000000000
     0.0000000000000000    0.0000000000000000   16.1521472486673723
 Al  H  
 256   4
Cartesian
 -0.0003145293713586  0.0002476050092842  0.0004623223401268
 -0.0000179243609861  2.0198577064786840  2.0193426524217708
  2.0180693947098174 -0.0003456861998406  2.0165262409298141
  2.0183035617487293  2.0197241529580778 -0.0001340513163966
 -0.0015137418368451  0.0003831402706986  4.0411796812543788
  0.0014145675139713  2.0131159898543003  6.0592952160655749
  2.0315174707763903 -0.0040037642116234  6.0736798142422517
  2.0188011486302773  2.0161828373130777  4.0406605221548642
  0.0177048870295802 -0.0031213041523636  8.0850644732433139
 -0.0228072062829256  2.0462510625494614 10.1037533617383630
  1.9491392790812427  0.0708380526756647 10.1664366921684817
  2.0272483066674361  2.0022518679583188  8.0827451451426438
 -0.0221440731806906  0.0072742366210137 12.1445793404540137
 -0.0010570115316593  2.0200013519681321 14.1380850494285522
  2.0195426162392454  0.0000405806788979 14.1313383735329232
  2.0116315016381843  2.0453256845405288 12.1404117144471115
 -0.0002311481021252  4.0380328080567676  0.0008892020479523
  0.0029560853265037  6.0524102826244714  2.0160648983739504
  2.0191821720553427  4.0385146059014492  2.0198942462093039
  2.0188760948365512  6.0576895056584048 -0.0001553989308550
  0.0014766855064206  4.0366031847245631  4.0356697412235931
 -0.0012557465289285  6.0584021997968840  6.0569337104348380
  2.0182398999373379  4.0364715548836001  6.0597040292559905
  2.0243638194882410  6.0515439427213602  4.0381382540555508
  0.0102547946376288  4.0395906473375822  8.0777919827582227
  0.0019358591720594  6.0567087723282409 10.0973359701750294
  2.0193419886244279  4.0364492591854475 10.0945418018212756
  2.0194360535259803  6.0596806666064795  8.0763619074941975
 -0.0016406092258849  4.0430652334553567 12.1148363219477400
  0.0008523143884279  6.0572918458841967 14.1326807910606362
  2.0191697987856907  4.0432013436106296 14.1385443893102636
  2.0185305651241703  6.0568708755025247 12.1155899749560820
  0.0008459154296958  8.0743545061187181 -0.0044679707548442
  0.0261907888376840 10.0880628360406313  1.9934780941019390
  2.0236572184555790  8.0739129944025780  2.0176559615054837
  2.0243025726521138 10.0951339468746291 -0.0053486719152400
  0.0272833414284959  8.0507101315332772  4.0305496640029164
 -0.0135109753315080 10.0953269017694982  6.0477050596107773
  2.0170011591670454  8.0783134362194389  6.0560833199992654
  2.0168297990140456 10.0909248879708162  4.0348258237819579
 -0.0028338367673773  8.0794645931965920  8.0738409243311260
  0.0002042861357907 10.0961343338271021 10.0948687978460878
  2.0184878626124143  8.0726160019623734 10.0949957349602517
  2.0170426536913775 10.0968793342805441  8.0728606093938335
 -0.0003464836690849  8.0757767773709457 12.1137903279599044
  0.0000433136352453 10.0942507676879440 14.1332298008805513
  2.0192529858554149  8.0769711333686072 14.1325795843125093
  2.0189158477565750 10.0972113919061446 12.1108271506806968
 -0.0031462225470448 12.1140806105442937  0.0016314542937803
  0.0015293828097944 14.1304338996742231  2.0166904725381674
  2.0166191516077938 12.1136691953572448  2.0217899274400195
  2.0193276299728438 14.1336314031734886  0.0015805683651224
 -0.0147660192546584 12.1027537711760278  4.0388321095326880
 -0.0008295846763748 14.1545602721226125  6.0347452473809335
  2.0122357618959792 12.0881794564788265  6.0308191331293832
  2.0176848360371320 14.1305114007762320  4.0394287516013279
 -0.0010192230412961 12.0955347059622049  8.0990209593561602
  0.0165454364205586 14.1418672444837625 10.0888385860187650
  2.0309676457318595 12.1306492588832189 10.0919736051812290
  1.9563582159944277 14.0661607923646041  8.0087230956240099
  0.0031084409590176 12.1160156594879957 12.1121190221247907
  0.0033167483957100 14.1337497148771014 14.1313909730944154
  2.0190235029323453 12.1168373939154215 14.1313072694808337
  2.0257817579379234 14.1403186609875640 12.0969225259395721
  4.0378580658677654  0.0006088792191157  0.0018101122329471
  4.0379828013698384  2.0193857135039832  2.0194310124269053
  6.0522798917328080  0.0000780697589906  2.0142625718725613
  6.0576381453760906  2.0192582347953016 -0.0010627600649143
  4.0369925031929323  0.0007907371029070  4.0403470305316311
  4.0426707601709113  2.0451801056610606  6.0303657471137715
  6.0836010077765481  0.0050236280765224  6.0307731177832036
  6.0539357395600568  2.0224209619340652  4.0312913995318427
  4.1084209781586223  0.0703741427578596  8.0047812027562184
  4.0305108010079334  2.0023032046908980 10.0877550700573106
  6.0418435158261392 -0.0071588718780365 10.0852663408332450
  6.0868986344397431  2.0436373581141325  8.0697978158895083
  4.0311791171651690 -0.0075405416273716 12.0970132785938649
  4.0381920558457924  2.0164712198411117 14.1310874906248003
  6.0542917715307967 -0.0002941182415885 14.1309309704425594
  6.0549345476218166  2.0178071311175132 12.1118352582153239
  4.0383885065910849  4.0381028530080467  0.0000518420457370
  4.0364241003235390  6.0575659501715737  2.0167742248581866
  6.0577595021198807  4.0375978895375368  2.0198312158852736
  6.0550562854520305  6.0569909159988056 -0.0021030219065377
  4.0365759922540336  4.0415501713063309  4.0320008020437905
  4.0356608445422175  6.0570794147660161  6.0560854431487172
  6.0414650597601751  4.0392560633659640  6.0565900990934241
  6.0445714617346651  6.0570559941403008  4.0329504608489621
  4.0375914823793826  4.0345776504856561  8.0768201122855032
  4.0366350580005541  6.0591238685461954 10.0977213110302451
  6.0550120603831195  4.0353623269773644 10.0950405364907017
  6.0452488761298007  6.0570551424499488  8.0809786862750812
  4.0385489020459246  4.0364648036639039 12.1111444160276545
  4.0369794387970526  6.0567804936440544 14.1330802519513679
  6.0579888439739769  4.0389529735539398 14.1329134217730346
  6.0551287152469087  6.0564411657424460 12.1168037373575963
  4.0388149189840812  8.0755762358088159  0.0008679199102185
  4.0375284088785719 10.0943512358755125  2.0188831875562365
  6.0581214019413308  8.0760172083819342  2.0192798167739689
  6.0570854567515591 10.0952568353957250  0.0004096335608998
  4.0363170843700438  8.0772442274984755  4.0361388656970094
  4.0386626069568345 10.0988421498002570  6.0599344341925834
  6.0436576235036279  8.0829258556703945  6.0573148073027383
  6.0568402017385026 10.0942761253958473  4.0375307129946538
  4.0355318466460508  8.0744471218037273  8.0774038838354514
  4.0372340174621533 10.0974387613970364 10.0942223983024988
  6.0588324978109460  8.0765985036187828 10.0943466993346327
  6.0495801138380516 10.0913437231972374  8.0767052175816207
  4.0389431814249557  8.0758718745611553 12.1144792399760490
  4.0384360488120263 10.0896018014489020 14.1381096907273633
  6.0569178668186217  8.0749935240000408 14.1332990536983640
  6.0580465881763672 10.0902974896572530 12.1156768348605528
  4.0385330907280199 12.1130363240343311 -0.0000438113987641
  4.0382973445174279 14.1334347157775237  2.0166907166825472
  6.0578101645046072 12.1137235456589174  2.0189362165859865
  6.0579736493047918 14.1321237068716794  0.0005515305276302
  4.0404894510770575 12.1163052706793444  4.0400949455705142
  4.0300251903423510 14.1407007308066959  6.0740376212301586
  6.0549604231999687 12.1206783463828245  6.0591764095045439
  6.0562892260348651 14.1333280496104052  4.0426022122557246
  4.0311250048064489 12.1306132030999407  8.0839420288347590
  4.1075200315681082 14.0619801605851364 10.1662816841330272
  6.0804279972967112 12.0871180130220388 10.1036106350373629
  6.0409111861823170 14.1405991674811720  8.0832106150017040
  4.0458058403670005 12.0879520590888916 12.1408115768128049
  4.0375410723096516 14.1330044158695003 14.1313150254730662
  6.0577461326752253 12.1132243315354948 14.1375315909799859
  6.0788508003628099 14.1260206681667437 12.1447507379774482
  8.0758397401551818  0.0005171990226675  0.0004570259059295
  8.0743989189026593  2.0207042907832795  2.0147390393405553
 10.0945213878889373  0.0021032134811497  2.0194892899957000
 10.0946900491845319  2.0179643192436711 -0.0020916779942130
  8.0499454904752774  0.0091735787937021  4.0071315800213378
  8.0449650736175435  2.0342480641567926  6.0491609678906721
 10.0294898092922136  0.0703920734770259  5.9903376200684146
 10.0876779270504642  2.0342070891259780  4.0020378284313480
  8.0912299717208160 -0.0091715161949894  8.0698499976227769
  8.0760168889553423  2.0146581045410841 10.0918979201584964
 10.1035542545997732 -0.0088355474829555 10.0796716914576532
 10.1026271660754290  1.9921616032464058  8.0768954801718333
  8.0768834227601154  0.0007071565962249 12.1094750308197536
  8.0761591431407513  2.0205358966886680 14.1323215548825925
 10.0946763549205958 -0.0012079385980466 14.1353890499878450
 10.0948971109260022  2.0144221304974850 12.1141246249810752
  8.0753799423637194  4.0370149950392022 -0.0018781055061827
  8.0708548664987578  6.0572467133104819  2.0058940090559099
 10.0951571352820189  4.0362106853984212  2.0021529656628143
 10.0944345978497907  6.0572534852670827 -0.0021761420932726
  8.0828188392159426  4.0529624120400358  4.0449319582452690
  8.0365921386877996  6.0548494822841121  6.0570459540867292
 10.0935806482021562  4.0006355703053718  6.0567892726208097
 10.0978578246706441  6.0599030153907476  4.0004277273792610
  8.0918501602765520  4.0507061077731965  8.0674691507792655
  8.0701778160685027  6.0563392992832696 10.1079813606429791
 10.0949593423982726  4.0295913300893904 10.1049994638938045
 10.0943782784730285  6.0543924127553757  8.1139282162855242
  8.0741124127350421  4.0364105955124465 12.1159311095959232
  8.0763292685782702  6.0564875792010282 14.1332861869656394
 10.0950704462603404  4.0384412945929293 14.1327069950070001
 10.0951920579402543  6.0566253233707785 12.1166178255231323
  8.0748220450408095  8.0767258889606506 -0.0015095355542956
  8.0776010244378202 10.0949463443961207  2.0231906205036778
 10.0973688073068750  8.0851404825404369  2.0082886022071302
 10.0981105801333264 10.0969829992111926  0.0006434252584648
  8.0856241648001710  8.0695847515534531  4.0458296655334776
  8.0725633608778615 10.1113479789688743  6.0570287943354311
 10.0634890402052957  8.0814356317221385  6.0622843378296185
 10.1109059205394285 10.1147003414086978  4.0421797313489396
  8.0789622445197153  8.0653491889467208  8.0697722624936574
  8.0753761529065429 10.0863708865482220 10.0992987589454017
 10.0947392833870637  8.0798750682266363 10.1116544801750035
 10.0685697719645280 10.1016967708430059  8.1092294976534323
  8.0751137463196407  8.0772827447905247 12.1151536518506155
  8.0768073887942418 10.0954872218774021 14.1335380503080721
 10.0945382834875730  8.0744488881775496 14.1339663416876142
 10.0949367274929536 10.0913248873560057 12.1205868058540744
  8.0706204496601668 12.1134639293624460 -0.0042860129804900
  8.0750225486277358 14.1344047343618335  2.0198215757216627
 10.0669766760913397 12.1256174774602385  1.9923499208750128
 10.0945503652941362 14.1335709457470937 -0.0058511690200887
  8.0790236791596648 12.1163239678361521  4.0378561087232194
  8.0939874713879281 14.1378666117319316  6.0670248420509676
 10.1191871373112328 12.1255845425150639  6.0569914697544194
 10.0772166065566466 14.1665826312587395  4.0512700508331072
  8.0485949823101173 12.0916583049160788  8.0816831513036309
  8.0491042102380259 14.1263532751912031 10.1209550741944554
 10.0918831661348829 12.0882078053639663 10.1210687347080359
 10.0266577837410384 14.0618862226532553  8.1446566816829886
  8.0797151946021266 12.1110704004412693 12.1193065971322422
  8.0802615524635311 14.1324618232702672 14.1377787325631346
 10.0939580730001577 12.1155189338627665 14.1333605736191181
 10.0951890573734140 14.1329435166738460 12.1121607556370403
 12.1136397677698557  0.0057783799326599 -0.0063682436431084
 12.1143151986683204  2.0169315372246812  2.0211247841049031
 14.1307196031732847 -0.0016281996791310  2.0234552481486272
 14.1335560646817981  2.0187462929269313  0.0005490679336063
 12.1080871652820594 -0.0118887019708563  4.0539005801029910
 12.1147326978500249  1.9922193204759908  6.0636379968334522
 14.1192884221402295 -0.0108622760723046  6.0675616571827797
 14.1298210852059452  2.0189053107384880  4.0410099143328608
 12.1825199105383390  0.0682771366739306  8.1451669978825088
 12.1209320488009844  2.0461624801370073 10.1199820144851476
 14.1604870192445826  0.0106019632032097 10.1243567255848337
 14.1608116588023947  2.0441307811721252  8.0844710708765160
 12.1131785025378971  0.0009853368712324 12.1112819659663575
 12.1137684443297022  2.0201021031638842 14.1322453759371580
 14.1287065329842925  0.0003989691421343 14.1383478527538955
 14.1294636020280731  2.0219569836990265 12.1204014911210241
 12.1152119147366051  4.0371720171435603 -0.0010225270254020
 12.1197287392390880  6.0592000436705513  2.0085290096800006
 14.1332618300770694  4.0378809645869600  2.0197397318141741
 14.1352112408640327  6.0516865538476550 -0.0067921805445717
 12.1052536501220249  4.0455766169326441  4.0497579259484109
 12.1517055733601378  6.0580575796548333  6.0579300303824466
 14.1432575443662554  4.0285713548746092  6.0568851927287817
 14.1469979009904971  6.0579826530603134  4.0309867058271829
 12.1054171497905330  4.0428882251784888  8.0678518357652766
 12.1200322020910463  6.0544365295695419 10.1121203982172201
 14.1287595298906723  4.0471977419876932 10.0953702055345094
 14.1471201667416953  6.0597501825997977  8.0800405913495563
 12.1147265218220301  4.0419631432618575 12.1208077165492139
 12.1140280382451131  6.0576760648609262 14.1340841136759039
 14.1329559961053555  4.0379068812012839 14.1327428546934080
 14.1345173961516544  6.0576311229154012 12.1152094558437771
 12.1154186848753138  8.0798654181028233  0.0003781180464490
 12.1221470536203899 10.0974666264900854  2.0341291553132557
 14.1385122142556963  8.0504284900061549  1.9942815013202890
 14.1322971427017716 10.0950034006040923  0.0023835677950861
 12.1130102174764449  8.0851282814134677  4.0537909982878899
 12.0538141004008779 10.0366173932267859  6.1297164003590279
 14.1354301294648934  8.1007214644832644  6.0493584216760627
 14.2030717486594718 10.0214836721756377  3.9666131336399655
 12.0984159763391599  8.0402938367282015  8.0930300581654784
 12.1148744485543993 10.0967736162726567 10.0889262289308981
 14.1326415234492710  8.0796899473059192 10.0922895968170092
 14.1176174434324917 10.0998962481197001  8.0621848050817881
 12.1147157101147478  8.0772425397497987 12.1151762373135252
 12.1132026965089317 10.0948622957516818 14.1303899155317421
 14.1335939534497683  8.0745078259923186 14.1333880424159553
 14.1338803609124355 10.0951486399333046 12.1167337235765551
 12.1141368191952257 12.1132397397915597  0.0011476668534586
 12.1064430524450852 14.1600187846016130  1.9920292846908800
 14.1281333524198924 12.1054804635811468  2.0318450996551745
 14.1335957934380279 14.1301142975739360  0.0022763137190194
 12.0480126390371733 12.1584946233985889  3.9359215657615394
 12.1885479173078490 14.0534007267620389  5.9802714691347978
 14.2273461309444595 12.1546645104989999  6.1213795226286720
 14.1490008977812654 14.1110876743274130  4.0146093941341601
 12.1139325787355538 12.1263219183615902  8.0536227196368539
 12.1046136616098305 14.1378447870975350 10.0760751450441770
 14.1339540423818146 12.1180671211516948 10.0916324307744727
 14.1214528220567068 14.1660793093638375  8.0926987400138266
 12.1137318083107814 12.1164889637537136 12.1131306550668274
 12.1144734969242904 14.1338291797384592 14.1349525454690337
 14.1337864726035782 12.1132674338383239 14.1307943156274671
 14.1328118316637301 14.1335849254354304 12.1095923983719391
  3.0290390264222000 15.1431504413994347  9.0865178904351538
 10.0962112388847967  6.0544969302923715  6.0570066556676609
 11.1067382311654566 15.1362814259544738  7.0645833452207514
 13.1274853249104222 11.0973445585255455  5.0427325497333690
