Cr72 Co72 Ni72 H1
1.0
  10.5839884400000006   10.5839884400000006    0.0000000000000000
   0.0000000000000000   10.5839884400000006   10.5839884400000006
  10.5839884400000006    0.0000000000000000   10.5839884400000006
Cr Co Ni H
72 72 72 1
direct
   0.0000000000000000    0.0000000000000000    0.0000000000000000 Cr
  -0.0000000472411703    0.8333333459309787    0.5000000264550554 Cr
   0.0000000000000000    0.8333332986898084    0.1666666597379617 Cr
   0.8333333459309786    0.6666666861930171    0.1666666124967914 Cr
   0.4999999792138849    0.8333333931721491    0.4999999792138851 Cr
   0.3333333194759233    0.6666666389518467    0.1666666597379617 Cr
  -0.0000000000000001    0.0000000000000001    0.6666666389518467 Cr
   0.1666666597379617    0.1666666597379617    0.6666666389518469 Cr
   0.3333333194759233    0.1666666597379618    0.6666666389518467 Cr
   0.3333333194759234    0.4999999792138851    0.1666666597379616 Cr
   0.6666666861930168    0.1666666124967915    0.6666666861930171 Cr
   0.8333333459309786    0.1666666124967915    0.6666666861930171 Cr
   0.5000000264550554    0.3333332722347531    0.6666666861930169 Cr
   0.6666666389518467    0.8333333931721489    0.3333333194759234 Cr
   0.4999999792138851    0.4999999792138851    0.6666667334341873 Cr
   0.6666666861930171    0.5000000264550554    0.6666666861930171 Cr
   0.8333332986898084    0.1666666597379617    0.1666666597379617 Cr
   0.1666666124967913    0.6666666861930171    0.6666666861930171 Cr
   0.8333333459309786    0.6666666861930171    0.5000000264550554 Cr
   0.3333332722347531    0.6666666861930169    0.5000000264550554 Cr
   0.8333333459309787    0.8333333459309786    0.1666666124967915 Cr
  -0.0000000000000000    0.0000000000000000    0.3333333194759234 Cr
   0.3333333194759234   -0.0000000000000000    0.4999999792138851 Cr
   0.1666666597379617    0.6666666389518467    0.3333333194759233 Cr
   0.6666666861930169   -0.0000000472411703    0.5000000264550554 Cr
   0.6666666861930168    0.5000000264550554    0.3333332722347531 Cr
   0.4999999792138851    0.4999999792138851    0.3333333194759235 Cr
  -0.0000000000000000    0.1666666597379617    0.4999999792138851 Cr
   0.1666666597379616    0.4999999792138851    0.3333333194759234 Cr
  -0.0000000000000001    0.4999999792138851    0.3333333194759234 Cr
   0.4999999792138851    0.1666666597379617    0.1666666597379617 Cr
   0.8333333931721489    0.3333333194759233    0.3333333194759234 Cr
   0.3333333194759234    0.3333333194759234    0.4999999792138852 Cr
   0.6666666389518466    0.1666666597379617    0.3333333194759233 Cr
   0.4999999792138849    0.3333333194759235    0.4999999792138851 Cr
   0.1666666597379617    0.1666666597379617    0.3333333194759234 Cr
   0.6666666389518467    0.0000000000000000    0.3333333194759234 Cr
   0.8333333931721491    0.4999999792138851    0.4999999792138851 Cr
  -0.0000000472411703    0.6666666861930171    0.5000000264550554 Cr
   0.1666666597379617    0.0000000000000000    0.3333333194759234 Cr
   0.3333333194759234    0.3333333194759234    0.3333333194759234 Cr
   0.6666666861930171    0.6666666861930172    0.6666666861930171 Cr
   0.1666666124967915    0.5000000264550553    0.6666666861930171 Cr
   0.1666666124967913    0.3333333667170937    0.8333333459309787 Cr
   0.6666666861930169    0.5000000264550554   -0.0000000472411703 Cr
  -0.0000000472411702    0.3333333667170936    0.8333333459309787 Cr
   0.3333333194759234    0.4999999792138851   -0.0000000000000000 Cr
  -0.0000000000000000    0.4999999792138851    0.0000000000000000 Cr
   0.3333333194759234    0.3333333194759234    0.0000000000000000 Cr
   0.8333333459309786    0.5000000264550555    0.8333333459309787 Cr
  -0.0000000000000000    0.3333333194759234    0.0000000000000000 Cr
   0.3333333194759234    0.6666666389518467    0.8333333931721489 Cr
   0.6666666389518466    0.1666666597379617   -0.0000000000000001 Cr
   0.3333333194759234    0.1666666597379617   -0.0000000000000000 Cr
   0.8333333459309785    0.6666666861930172    0.8333333459309787 Cr
   0.8333332986898084   -0.0000000000000000    0.0000000000000000 Cr
  -0.0000000472411703    0.8333333459309786    0.8333333459309787 Cr
   0.1666666124967914    0.8333333459309786    0.8333333459309786 Cr
   0.3333333667170936    0.8333333459309786    0.8333333459309786 Cr
   0.1666666597379617    0.6666666389518467   -0.0000000000000000 Cr
   0.5000000264550554    0.6666666861930171   -0.0000000472411703 Cr
   0.4999999792138851    0.8333333931721489    0.3333333194759234 Cr
   0.3333333194759234    0.0000000000000000    0.1666666597379617 Cr
   0.6666666861930168    0.8333333459309787   -0.0000000472411703 Cr
   0.3333333667170936   -0.0000000472411702    0.8333333459309787 Cr
   0.6666666861930168   -0.0000000472411701    0.8333333459309787 Cr
   0.1666666597379617    0.0000000000000000    0.1666666597379617 Cr
  -0.0000000000000000    0.1666666597379617    0.8333332986898085 Cr
   0.8333333459309785    0.8333333459309787    0.6666666861930171 Cr
   0.5000000264550553   -0.0000000472411702    0.8333333459309787 Cr
   0.6666666861930169    0.8333333459309787    0.6666666861930171 Cr
   0.8333333459309786    0.6666666861930169   -0.0000000472411702 Cr
   0.5000000264550554    0.8333333459309787    0.6666666861930169 Co
   0.6666666861930171    0.1666666124967914    0.5000000264550553 Co
  -0.0000000472411703    0.6666666861930171    0.6666666861930171 Co
   0.6666666861930169    0.6666666861930172    0.8333333459309786 Co
   0.5000000264550554    0.8333333459309787    0.8333333459309786 Co
   0.5000000264550554    0.6666666861930171    0.8333333459309787 Co
   0.1666666597379616    0.1666666597379617    0.4999999792138851 Co
   0.3333333194759234    0.1666666597379617    0.4999999792138851 Co
   0.1666666597379616    0.0000000000000001    0.4999999792138851 Co
  -0.0000000000000000    0.0000000000000000    0.4999999792138851 Co
   0.8333333459309785   -0.0000000472411702    0.5000000264550554 Co
  -0.0000000000000001    0.1666666597379618    0.6666666389518467 Co
  -0.0000000472411703    0.5000000264550554    0.6666666861930171 Co
   0.3333333667170937    0.1666666124967914    0.8333333459309787 Co
   0.8333333459309786    0.8333333459309787    0.5000000264550555 Co
   0.5000000264550554    0.1666666124967915    0.8333333459309787 Co
   0.6666666861930169    0.1666666124967916    0.8333333459309786 Co
   0.8333333459309785    0.1666666124967916    0.8333333459309787 Co
   0.1666666597379617    0.1666666597379618    0.8333332986898084 Co
   0.6666666861930171    0.6666666861930171    0.5000000264550553 Co
   0.5000000264550553    0.1666666124967914    0.6666666861930171 Co
   0.3333333194759232    0.8333333931721489    0.6666666389518467 Co
   0.8333333459309784   -0.0000000472411700    0.8333333459309787 Co
   0.6666666389518467    0.3333333194759235    0.8333333931721489 Co
  -0.0000000472411703    0.5000000264550554    0.8333333459309789 Co
   0.4999999792138849    0.4999999792138851    0.8333333931721491 Co
   0.4999999792138851    0.4999999792138851    0.4999999792138851 Co
   0.1666666597379617    0.4999999792138851    0.4999999792138851 Co
   0.6666666861930171    0.3333332722347531    0.5000000264550554 Co
   0.1666666597379616    0.3333333194759234    0.4999999792138851 Co
   0.1666666124967914    0.8333333459309786    0.6666666861930171 Co
   0.8333333459309785    0.8333333459309787    0.8333333459309787 Co
   0.8333333459309785    0.3333333667170936    0.1666666124967914 Co
   0.6666666389518467    0.1666666597379617    0.1666666597379617 Co
   0.1666666597379617    0.8333332986898084    0.1666666597379617 Co
   0.4999999792138850    0.4999999792138851   -0.0000000000000000 Co
   0.6666666861930171    0.6666666861930171    0.1666666124967915 Co
   0.8333333459309787    0.5000000264550554   -0.0000000472411702 Co
   0.5000000264550553    0.6666666861930171    0.1666666124967914 Co
   0.1666666597379617    0.6666666389518469    0.1666666597379617 Co
   0.3333333194759234    0.6666666389518467    0.0000000000000000 Co
   0.6666666861930171    0.6666666861930171   -0.0000000472411703 Co
   0.6666666861930169    0.8333333459309786    0.1666666124967915 Co
   0.0000000000000000    0.8333332986898084   -0.0000000000000000 Co
   0.8333333459309786    0.5000000264550554    0.1666666124967913 Co
   0.4999999792138851    0.4999999792138851    0.1666666597379617 Co
   0.1666666597379617    0.4999999792138851    0.1666666597379617 Co
   0.8333333459309786    0.8333333459309786   -0.0000000472411701 Co
  -0.0000000000000000    0.0000000000000000    0.1666666597379617 Co
   0.1666666124967913    0.8333333459309787    0.3333333667170936 Co
   0.4999999792138850    0.3333333194759234    0.1666666597379616 Co
  -0.0000000000000000    0.1666666597379617    0.1666666597379617 Co
   0.1666666597379617    0.1666666597379617    0.1666666597379617 Co
  -0.0000000000000001    0.6666666389518467    0.1666666597379617 Co
   0.3333333194759233    0.0000000000000000    0.3333333194759234 Co
   0.3333333667170937    0.8333333459309787    0.1666666124967914 Co
   0.8333333459309787    0.1666666124967914    0.3333333667170936 Co
   0.3333333194759233    0.4999999792138852    0.3333333194759234 Co
   0.4999999792138851    0.3333333194759234   -0.0000000000000001 Co
   0.6666666389518467    0.3333333194759234    0.3333333194759234 Co
   0.4999999792138851    0.3333333194759234    0.3333333194759234 Co
   0.3333333194759234    0.6666666389518467    0.3333333194759234 Co
   0.5000000264550554    0.6666666861930169    0.3333332722347532 Co
  -0.0000000000000000    0.1666666597379617    0.0000000000000000 Co
   0.1666666597379617    0.1666666597379617    0.0000000000000000 Co
   0.8333332986898084    0.1666666597379616    0.0000000000000000 Co
   0.6666666861930169    0.6666666861930171    0.3333332722347531 Co
  -0.0000000000000000    0.6666666389518467    0.3333333194759234 Co
   0.1666666597379617    0.0000000000000000   -0.0000000000000000 Co
   0.1666666597379617    0.3333333194759234    0.0000000000000000 Co
   0.8333333931721491    0.6666666389518467    0.3333333194759233 Co
  -0.0000000472411702    0.8333333459309787    0.3333333667170936 Co
   0.3333333194759234    0.0000000000000000   -0.0000000000000000 Ni
   0.4999999792138850    0.0000000000000000    0.1666666597379617 Ni
   0.1666666597379616    0.0000000000000001    0.8333332986898084 Ni
   0.6666666389518467   -0.0000000000000000    0.1666666597379617 Ni
   0.8333332986898083    0.0000000000000000    0.1666666597379616 Ni
  -0.0000000472411704    0.8333333459309787    0.6666666861930169 Ni
   0.8333333459309786    0.6666666861930172    0.6666666861930171 Ni
   0.5000000264550553    0.8333333459309787   -0.0000000472411703 Ni
  -0.0000000000000001    0.0000000000000001    0.8333332986898085 Ni
   0.3333333194759234    0.4999999792138851    0.8333333931721489 Ni
   0.1666666597379617    0.8333332986898084    0.0000000000000001 Ni
   0.4999999792138851   -0.0000000000000000   -0.0000000000000000 Ni
   0.6666666389518467    0.0000000000000000   -0.0000000000000000 Ni
  -0.0000000000000000    0.6666666389518467    0.0000000000000000 Ni
   0.4999999792138850    0.1666666597379617   -0.0000000000000000 Ni
   0.1666666597379617    0.4999999792138851    0.0000000000000000 Ni
   0.1666666124967913    0.6666666861930171    0.8333333459309786 Ni
  -0.0000000472411702    0.6666666861930171    0.8333333459309787 Ni
   0.3333333194759233    0.3333333194759234    0.8333333931721489 Ni
   0.4999999792138849    0.3333333194759235    0.8333333931721489 Ni
   0.8333333459309787    0.3333333667170936   -0.0000000472411702 Ni
   0.6666666861930168    0.5000000264550555    0.8333333459309787 Ni
   0.8333333459309786    0.3333333667170938    0.8333333459309787 Ni
   0.6666666389518467    0.3333333194759234   -0.0000000000000000 Ni
   0.1666666124967913    0.5000000264550554    0.8333333459309787 Ni
   0.3333333667170936    0.8333333459309787   -0.0000000472411703 Ni
   0.3333333194759234    0.1666666597379617    0.1666666597379617 Ni
   0.3333333194759233    0.8333333931721489    0.3333333194759234 Ni
   0.3333332722347531    0.6666666861930171    0.6666666861930171 Ni
   0.1666666124967913    0.6666666861930171    0.5000000264550553 Ni
   0.4999999792138851   -0.0000000000000000    0.3333333194759234 Ni
   0.6666667334341873    0.4999999792138850    0.4999999792138851 Ni
   0.8333333459309787   -0.0000000472411702    0.3333333667170936 Ni
   0.3333333194759234    0.4999999792138851    0.4999999792138851 Ni
  -0.0000000000000000    0.1666666597379617    0.3333333194759234 Ni
  -0.0000000000000000    0.4999999792138851    0.4999999792138851 Ni
   0.8333333931721489    0.3333333194759234    0.4999999792138851 Ni
   0.4999999792138849    0.6666667334341873    0.4999999792138851 Ni
   0.3333333194759233    0.1666666597379617    0.3333333194759234 Ni
  -0.0000000000000000    0.3333333194759234    0.3333333194759234 Ni
  -0.0000000000000001    0.3333333194759234    0.4999999792138851 Ni
   0.8333333459309786    0.1666666124967914    0.5000000264550554 Ni
   0.1666666597379617    0.3333333194759234    0.3333333194759234 Ni
   0.4999999792138851    0.1666666597379617    0.4999999792138851 Ni
   0.8333333931721489    0.4999999792138851    0.3333333194759233 Ni
   0.4999999792138850    0.0000000000000000    0.4999999792138851 Ni
   0.6666666861930169    0.8333333459309787    0.8333333459309786 Ni
   0.4999999792138851    0.1666666597379617    0.3333333194759234 Ni
   0.5000000264550554    0.8333333459309787    0.1666666124967914 Ni
   0.1666666124967913    0.8333333459309787    0.5000000264550554 Ni
   0.3333333194759234    0.8333333931721489    0.4999999792138852 Ni
  -0.0000000000000000    0.3333333194759234    0.1666666597379617 Ni
   0.8333333459309786    0.5000000264550555    0.6666666861930169 Ni
   0.1666666597379617    0.3333333194759234    0.1666666597379617 Ni
   0.3333333194759233    0.3333333194759234    0.1666666597379617 Ni
   0.3333332722347530    0.5000000264550554    0.6666666861930169 Ni
   0.6666666389518467    0.3333333194759233    0.1666666597379617 Ni
   0.8333333931721488    0.3333333194759234    0.6666666389518467 Ni
   0.6666666861930169    0.3333332722347531    0.6666666861930171 Ni
   0.3333333194759234    0.3333333194759234    0.6666666389518467 Ni
   0.1666666597379617    0.3333333194759234    0.6666666389518469 Ni
  -0.0000000000000001    0.3333333194759234    0.6666666389518467 Ni
  -0.0000000000000000    0.4999999792138851    0.1666666597379617 Ni
   0.6666666861930171    0.5000000264550553    0.1666666124967915 Ni
   0.8333333459309786   -0.0000000472411701    0.6666666861930169 Ni
   0.6666666861930171   -0.0000000472411702    0.6666666861930171 Ni
   0.5000000264550554   -0.0000000472411703    0.6666666861930171 Ni
   0.3333333194759234    0.0000000000000001    0.6666666389518467 Ni
   0.1666666597379617    0.0000000000000000    0.6666666389518469 Ni
   0.6666666861930171    0.8333333459309787    0.5000000264550554 Ni
   0.5000000264550553    0.6666666861930171    0.6666666861930171 Ni
   0.8333333459309786    0.8333333459309786    0.3333333667170937 Ni
   0.5892562944195101    0.5892562944195103    0.5892562944195103 H
