Fe 
 1.0000000000000000
     3.8409467090334144   -0.0000004743434304    0.0000001655780220
    -0.0000004743434311    3.8409547322154243    0.0000011539166783
     0.0000001655780218    0.0000011539166777    3.8409619328661710
 Fe 
   4
Cartesian
  0.0000050286170820  0.0000014612385568 -0.0000034057856444
  0.0000020202065739  1.9204780097442817  1.9204836526806888
  1.9204734277942472 -0.0000013745732325  1.9204839260791418
  1.9204659236501020  1.9204773153790646 -0.0000009206133144
