Cu  H 
 1.0000000000000000
    12.6270314399999997    0.0000000000000000    0.0000000000000000
     0.0000000000000000    7.7324460000000004    0.0000000000000000
     0.0000000000000000    0.0000000000000000    8.9286595599999998
 Cu  H  
  72   5
Cartesian
 -0.0313128402768293 -0.0156181420805360 -0.0135263129699031
  2.0622015139951975  1.2573923888202385  0.7437065851027349
 -0.0689421594478446  1.2168397487294502  2.1830879303357116
  4.1677989430031293  0.0039363277158491  1.4797451360802725
  2.0747543808728608 -0.0018560986738829  2.9770424524479604
  4.1801799523326544  1.3217102607134610  3.7536331141783066
 -0.0552482718990421 -0.0275648702603510  4.4376997940983216
  2.1170403989667261  1.2414244405475421  5.2038525443300081
 -0.0385933101479176  1.1672177593442519  6.6541279629215397
  4.1767961098279942 -0.0005098779172785  5.9894794233410327
  2.0820729812166725 -0.0185354574265788  7.4523885981215328
  4.2098808177923255  1.2657566579141617  8.1797207898771891
 -0.0422423601050403  2.5750075809385087  0.0421760171126784
  2.0611503329591283  3.9228179553937204  0.7382143955744992
 -0.0541022894403253  3.9328476355205657  2.1917987382842252
  4.2317306725587134  2.6038308103436072  1.5157602091522264
  2.1873486125172659  2.5934558114603812  2.9683632273562126
  4.2086606635147286  3.8956275826724722  3.7333129298315533
 -0.1254355477390102  2.5756653470555917  4.4958315849892907
  2.1206956808715476  3.9275194267045741  5.2000727629805539
 -0.0369326139203504  3.9893722494385999  6.6543579922385225
  4.2094051340715470  2.5892018205838903  5.9468139074778463
  2.0845738102076354  2.5853615483492369  7.4281220235059049
  4.2090139066560646  3.9093701552773279  8.1678492092655262
 -0.0280785539788252  5.1706959765691867 -0.0138031350320352
  2.0842106070041346  6.4543184180000068  0.7566494329732320
 -0.0328299502746804  6.4414365224502692  2.2233772308642963
  4.1869194485051633  5.1677897554033061  1.5065611408356394
  2.0888782673002497  5.1789524250749723  2.9731866204124002
  4.1661825732533782  6.4289254338034194  3.7681387498079446
 -0.0510151806686543  5.1785573482201395  4.4363033595251498
  2.0592421297106038  6.4526935790755289  5.2058817486451909
 -0.0430280767824502  6.4439700321335405  6.6995964599135220
  4.1849863154038625  5.1735894030551863  5.9732591552949152
  2.0839793445200807  5.1945004565029569  7.4461748049517809
  4.1838251926708399  6.4492225398610774  8.2135953753484863
 -2.1644362956820613  1.2687590700236522  0.7475447471727854
 -4.2340260151052362 -0.0094710745435698  1.4957514714153100
 -6.3351795613219553  0.0053811900268775  0.0070540664901290
 -6.3015289071016891  1.3273060442404301  2.2219434839132024
 -2.1518035708208862 -0.0210727405998822  2.9745072508369281
 -4.2434611583242710  1.2799816164541959  3.7237659215676779
 -2.1805141195907254  1.2589013294239026  5.1923062579134989
 -4.2456869366789141 -0.0116753380891419  5.9737075142806280
 -6.3107434005887395  0.0061614587728257  4.5222579878795708
 -6.3488668490571536  1.2954801641185818  6.7104625697893265
 -2.1695711295653628 -0.0277764767059500  7.4470055152081720
 -4.2526835527366549  1.2716125759237096  8.1954443033493263
 -2.1632800153532843  3.8698033141741863  0.7506933399923041
 -4.2317295448823984  2.5746022082047513  1.4878631719188624
 -6.3255224964505388  2.5814577861482961  0.0084926057994401
 -6.3276004017939060  3.8773900112395112  2.2433079235570661
 -2.1675054088828425  2.5675459254741853  2.9680705606280791
 -4.2491877762371519  3.8659179041134912  3.7206481930346258
 -2.1835893809711600  3.8719037371107929  5.1917298538449357
 -4.2679758382015951  2.5677935431352501  5.9522451746014315
 -6.3291506714086561  2.5999170001285998  4.4787319887099146
 -6.3427897992281510  3.8722094735504111  6.7196151208130104
 -2.2465972087103099  2.5630612791270209  7.4300447099532745
 -4.2509424697708384  3.8638375782328191  8.1961517355381339
 -2.1320305784342781  6.4351772121775914  0.7418386978852457
 -4.2331835961954054  5.1544141992030061  1.4955249993278956
 -6.3423668298312066  5.1558897308503679  0.0207078944589619
 -6.3071200655197659  6.4195292439802421  2.2401268159019634
 -2.1515622247627735  5.1533372427517508  2.9747672754831891
 -4.2297858544137847  6.4362828940178582  3.7381842664399625
 -2.1516676668556669  6.4301358115470748  5.2182575791107242
 -4.2486683735783108  5.1460234966099963  5.9701393811305623
 -6.3321426095730935  5.1542093246815979  4.4940251048183306
 -6.3475177009943211  6.4434582849251134  6.7242085489325865
 -2.1642718597632205  5.1595650440662224  7.4479838641852547
 -4.2519435283801448  6.4314766512126580  8.2040767982584146
 51.6300982778191155 10.3107014679541749 32.6085436413383647
  0.5378310101105372  2.5690044244712196 20.8289890142531569
 66.2903623938328082 10.3352462217662886 17.8970185424759904
 100.4295205194816987 10.3107713378849564  7.3999614202945434
 30.4904451438097013  0.0402950080565438 29.8089421236366228
