Cr Co Ni  H 
 1.0000000000000000
    14.1120004653999995    0.0000000000000000    0.0000000000000000
     0.0000000000000000   14.1120004653999995    0.0000000000000000
     0.0000000000000000    0.0000000000000000   14.1120004653999995
 Cr  Co  Ni  H  
  86  85  85   4
Cartesian
  5.3483530958629837  1.7616784092210167 -0.0827026057993876
  3.4884919155088485 12.2890423278000238  1.7875928036494870
  3.4997164291612779  5.2676709793859979 12.3335073422865431
 -0.0361019318217801  3.5061309455255629 -0.0602997365019183
  1.7172538538409807  3.4567522282053127  1.8034219134573888
  5.2655224652549970  7.1052641272992085  8.8682812798000317
 12.3809455967505979  5.3098915817413310 10.5365917105720186
  8.8485525205490454  8.7487182131278338 10.5541940925134039
 10.6183987601790406 10.5931563447571548 -0.0236574470056042
  3.4967728370254774 -0.0291462834797061  7.1426270388016189
  7.1631814469030815 10.5016765363517663  3.5460157654145137
 10.5723342888002900  8.7754377532573944  1.8008956163096945
  3.4761418384883531  8.8458367481960334  8.7528239632801057
 -0.0875971487803889 10.5342592187289217 10.5745800902827742
  3.3908526563432297  7.1349540253533403  3.5399262104906946
 12.3436161448841286  6.9749166063174295  1.7555418653531254
  8.9212418007218091  1.8037493745701838  7.0388381262143254
  5.2450766256615893  1.7050789583743959 10.5706286944137453
 10.5112280790485979 10.5681515973687379  3.5640912031940393
 -0.0631547347207319  0.0602649279427030  7.1196556894824958
  7.1134289791031176  8.8380536164352677 12.3271336479035920
  5.2748103207381050 -0.0865805300079291 12.2809336356708201
 10.5829065579078474  3.6154852340625609  3.6219906059089730
 -0.0773318996439304 12.2831532669890304  8.8324161511037271
  3.5259137082631460  5.3406811407529151  1.7713201615566392
 12.3745038849530449  5.3141931054403129 -0.1412092100690523
 -0.0373634236538924  0.0569240039017326 -0.0292218545949790
  1.7388613044160819  8.8345061485664012 10.5276098651245018
 10.5869997023143156  3.5178454447798599 -0.0273039434323305
  3.5022589326378237 10.6524928367827023 10.6044169256803436
 12.4004328351605153 10.6228604318388555  5.3192217835735551
  7.0600337448985355  1.6758784041965868  8.8092550864194674
  5.3072526077196853 10.5605411953492183  1.8197384300144537
  1.7064858732219730  5.3153565809889196  0.0019328011286166
  7.1061665496757405  1.7864520796500161  5.2376619652840128
  1.7251327250533910  1.8271774914135581  7.1570457110201664
  1.7636311861127090  0.0693186527621029  5.2650683049124396
  7.1079889846166679  7.0826166045835057  7.0442222058437247
 12.3315237405301215  1.7830937360925092  3.5928057444346440
 12.4079676825520817  8.8068851139084909  3.5726321341609730
  7.1104022925086445  1.8087952419142950  1.7735542995374707
  5.2988735502286310 10.4894585340070794  5.2884735182707825
  5.2697148624430881  8.8419647881269725 10.6516917234338369
 10.5662707730042804  1.7795545185930328  1.7898869921117497
  7.0327621072772768  3.5115483122729061 10.5479727800436240
  7.1164923168615060  5.3416706787151238  8.8708642507432600
  5.2949340625941330 10.5895327438702100  8.7861686270172079
  8.7366500060696861  5.2987777449766726  3.5915070154029656
  1.7303857364073842  0.0341043536469949  1.8196899926825072
 10.6111631995828350 12.3446251075965954 12.3049468168255700
  7.1105755107589568  3.5924509277577878  7.0786077761515589
  8.8838619438786086  8.7690076769282062  7.0767429244341962
  7.0575404607877843  5.3206530680731259 12.3730540953085431
 10.6203470018680850  0.0190895945550154 -0.0481555310461790
  1.7185335439176879 12.3028663660794582  7.0710087701472863
  3.5085866789328604  3.5605160032571423 10.5049563765978924
  3.3971201358397569  8.8569220080219484  1.7316374490792428
  5.3883949392706594  5.3914494071675678  3.5414200980622641
  0.0758717182022421  7.0255149065251201  3.5455147260750337
  5.2419554069717247  1.7886846412467936  7.1421657866500743
  8.8106785960022442  3.4915979869991958 12.3813581931841519
 -0.0763492998551761  0.0077533723112586 10.5392687794172648
  8.8332134475808655 10.5988969789150804  8.8691136833708644
  8.8590136959004244 -0.0349003998215213  1.7990773916897906
 10.6669177297098532 12.3173713455173726  1.7868410789540148
  3.5453007269327537  3.4551094933287794 -0.0511204309518678
 -0.0707699413668030  5.2865833586419644  5.4000658815838021
  5.2753253669667171  3.5058311913402860  5.2382752367568912
  0.0240805710494081  7.0990688963623638  0.0103553285789767
 -0.0112854346554218 -0.0326030474375436  3.5531688044139997
 10.6298646944976660 10.6383148476599292  7.0810039919387053
 12.3165324959293923 -0.0599117096642110  5.3358626497972308
  5.3004412599975854  8.8831984671175377 -0.0215987866947109
  5.2510001370407577  7.0182110179664337 12.3610096602449158
 12.3920296791022118  3.6375771276807178  1.7888166326906132
 10.6443168978646732  3.5068209428372232 10.5715046310881835
  8.8864338354268551 -0.0178727689151242  5.2237659646846470
  5.2325632578156167  5.3201815845863756  7.0396117358721417
  8.8502005071912926  8.8009168792570609 -0.0442063227714561
  5.2996426711190585  0.0311513527682856  5.2809413629505464
  3.4844068133553159  5.3281007953987549  5.2803710390220147
 -0.0501768477427193 12.2361220030980959  1.7519992485570255
  5.2901258721635518 12.3450009974952568  7.0461561166623863
 10.6383064470714377 -0.0655050220735272  7.1308356716111199
  8.8842116733700465  1.6543672911055372 10.6445420696826947
  3.5251936684051897 -0.0571544465906023 -0.0739296121816927
  1.7411715292472256 12.3539633917259639 10.6483278085775890
  7.1395990811063532 12.3078335881823477 12.3319427050017509
  3.3630953814786295  1.7441655556672140 12.2287440080920611
  5.3031714532758283  8.8235896715647932  7.0105363558144669
 -0.0195210524638778  3.5455165906101502  3.5948903672186452
  7.0624778563957058 -0.0643769238104722  3.4952153557312977
  7.1199790781215260 10.6838075820504592 -0.0112658444386708
  7.0940994005563551 12.3882265605204829  8.8303047892405200
  1.6941590131404873 10.5331070063795487  5.3121696602802251
  8.9355180504276053  3.6200316288469265  8.8267532766602663
  3.4417260244038435  7.0130978483871571 10.5618231780021770
  8.8786714348477886  1.8378877098797850  3.5731659964001414
  5.2895288043539397  7.1934146562837800  5.3148197858764883
 10.6093005169269166  6.9803764506988211  3.6125307214760745
  1.6854751381698507  7.0088625717291038  8.7610665100735101
  3.5466609942325862  0.0511345228061483  3.5254165645372497
  3.4412338121519674 12.3266089566680268  5.2182935796502719
  3.6672870889964253  1.7669161955540229  1.8864075080700837
 10.7083546784803687 10.4964115285820689 10.5565675041593803
  1.7364340486286634 -0.0137898885516358 12.2644979876072195
  1.6914817662273336 12.2781164462091397 -0.1109996943889024
  5.3802433891020405  7.1086946038983472  1.7029306434446487
 -0.0614121628781054  1.7805557641595857  1.8069553820511093
  3.4621247465350979  7.0785197318008946  0.0115253094520350
 12.4256578724390518 12.3202525037386845 -0.0764437437588354
  7.0215207422961692 10.7048107023211738 10.6228321888537049
  8.8624532111362964 -0.1504823736409797  8.8528872121118649
  1.7758363949239730 -0.0148528007553193  8.9240402249634201
  5.3108369313671755 10.7246021396186730 12.3917774899040367
 10.5245161589724106  5.3774217010853729  1.7496308560759639
 -0.0303730189168221  1.8109690918412753 12.2260190569477345
  1.6701161282536288  5.3670950854592414 10.5255215850271568
  8.8428759657457938 12.3739510661470309 10.5721004997720538
  1.6681401812705732  8.8420696068975673  7.0669306608562517
  7.1421117593381185 12.3336319095341373  5.3065644455736347
 12.3661799183851926  0.0760243982515511 12.2912550652678121
  8.7541837839368863 12.3231235242586497  7.0578962357112189
  3.5377971581123706  3.4638264648976884  3.4965309421247874
  3.4402470605768145  8.8115605342459471  5.4026532631773208
  1.7510786134256782 12.2217645282378129  3.6053162799303302
  3.4434747112265094 10.5837099036974251  6.9907559711732192
  7.0737276268563090 12.3769479157532576  1.7343581848131222
  5.3064926023463785  8.6818333069375360  3.5193740144589869
  8.9470918282098175  5.3110671110142569  7.0267806394824124
 12.3005288460896942  5.2993111309112049  7.1451632958413551
 -0.0600981540595487 12.3204363857105417 12.3545828221578375
 12.3550511737805468  8.7582052231377361  7.0471265198778275
  7.1050904056683182 10.5437496339755690  7.0161846752909600
  1.7791781762488776  3.4801616397681974  5.2839659778835220
 12.3819623619921408 12.3171020913231999  7.1051841942260827
  3.4492817867820480  5.3787869256108571  8.7963961392937939
  0.0256770691931336 12.2916642806869341  5.3114935860230688
  5.3667026386536651 12.3287046835443359  0.0095835594481045
 -0.0443169719053757  8.7935333721825675 12.3689563336323207
  1.7735191777976220  7.1076076225921341 12.2983301461650587
  3.4792440411317411  3.5360065950791308  7.1565773930594379
  3.4623293638052179  7.0989743398379579  7.0343382596922801
 10.5577383000955614 12.3214570934888332  5.2861978491497927
 10.7266705862927516  8.7371658326711561  8.8221259398769494
  5.2525410627242186  5.3322483192176815 10.5229321248332912
  3.4565015974148432  8.8254763850846398 12.4178258214407471
  8.9348270419637501  5.3895474569007824 10.5741809034557104
 12.3442688360255524  7.1457503341226003 12.3045853595922718
  8.7637028626714333 10.6225606992459838  1.7228023019010572
  8.8086010257723029  7.0084871994976092  1.7715400089489699
 -0.0237625528897541  1.9200277738055198  5.3350666161306162
  1.6930839394762600 10.5844081928714662 12.4109077283380884
  7.1012333064672788 -0.1001396460411115 -0.0571009640970921
 12.3399031727044104  8.8051738955835681 -0.0140085433818861
 10.5381677154776838  5.4012515265305909 12.3194537404067681
  5.3412975492408732 -0.0436759070443731  1.7723414806272173
  0.0310200296869267  8.8008095623773102  5.4159347046818107
  0.0670921660850462  5.3472931987380434 12.2177495765430475
 10.6062472806000052  8.7160472201131576  5.3033782145753019
 12.3375466692787459  5.3154066443405323  3.5800542337771502
  1.6635075877743299  3.4938079747443731 12.2074666007658106
  0.0268464927055388  5.2714092383632938  1.8421174934333782
  0.0564506306326114  8.9327715897648972  1.7393767232326507
  5.3953051107881187 12.4552137372675702  3.5079103960886542
  5.3107864832845024  3.5659892132129043  1.8172734229009406
  7.1089250616830224 -0.1410888070246963 10.5799159953471555
  1.7304075319913441  1.7507738457828352 10.5135602398286476
 10.6620467521620856  8.7791499939407878 12.3012760432061725
  7.0842293978458839  6.9995877872421781  0.0793026771048523
 -0.0064445464004594  7.1084087064170012 10.5752328330381928
  8.8793802083249105  8.7286405904332067  3.5524073188742600
  7.0159930754045430  8.8395710013138356  8.8593336684179160
 10.5905156748988833  1.8019637790472063  5.3101578646030196
 10.6028755772832888  7.0507023452209170 -0.0378398871014855
 12.3195205747539607 12.3203039618090173 10.5911337564453216
  5.3195577831537530  1.7530674198861369  3.5079730580585062
 10.6190887235065237 -0.0317132969016036  3.5509586662145143
 -0.0196872996902984  3.5247580839041697 10.5384332278656547
  8.8216215163520619 12.3345114508006617 -0.0164176498390190
 -0.0530446180857946  1.7966479141536527  8.8439070329100264
  7.1319232433194228  8.7912781829342688  1.7425905727506810
 12.3805471747202596  7.0581389690554746  8.7975691078715563
  1.7153307906386628  3.5760817701139054  8.8484144968244305
  5.2939169028745434 -0.0651413585080528  8.8498315834461394
 10.6421692341242746  5.3267762135278645  5.3665453241459096
  0.0105480980729337 10.5657754121483265  3.5658618780162401
 12.3450034430016693  3.5277795976551949  8.7847844740312926
  3.4630682205283732 12.3235562254952775  8.8482220374845753
 12.3736576389675204 10.5060545467453164  1.7678569783556881
 10.5957100332332868  5.3208499081770997  8.7960212539536133
  8.8511815944928482  5.3243782629431209  0.0243918459735056
  7.0737703088049280  3.5273662453475088  3.5301015857775591
 10.6516567981965213 -0.0048101086245098 10.5727867464242369
  3.4690697610331327 12.3218392505079688 12.3434535928401061
  7.0535656036290311  5.2883983250720883  1.7351169732950114
  1.6614079887629924  8.8560200419922541  3.5798859191223711
 10.6238396224214142  3.5747423893608445  7.0764666268370542
  5.3010920411024136 12.3394618103093734 10.5555828552895008
 -0.0276979582428014  8.7974742222007105  8.7805122255935295
 12.3519043235155124  3.5089342205519327 12.3046515618848460
  1.7245500813566772  7.1100475987647025  5.3749664509622939
  5.2678371807195843  5.2966553192854580  0.0631960658321337
  8.8564412608420966 10.5911237692822251 12.2593401073984687
  7.0516983554256178  3.5568837236338053  0.0116742026682308
 12.3642685648067463  0.0237550600366151  1.7741463495044305
 10.6483833069736882  1.7714091438784567  8.8188072913244326
  8.8590219071640277 10.5701398156309381  5.3443502492471140
 10.6367158384705185  7.0465347753375696  7.0682401573256284
  1.7629442242947386  5.2574222579175443  7.1081851815046786
 12.3550950545467941 12.3091583271355223  3.5617594612238923
  7.1012458938023739 -0.0310775774797798  7.0634428839118542
 12.3147424095859837  0.0109190614037160  8.8227013581514182
 12.3655519200502688  1.7931044335401520  0.0025578034692235
  8.8497368866251271  7.0367578391431227 12.3546856349711760
 -0.0113647761779371  5.3025362082224783  8.7860207835203354
  7.0802567062571695  1.6998742686251624 12.3176400254839677
 10.6312851531170462  7.0612278706461247 10.5686176135324601
  8.8103412606894906 12.3203015159799136  3.5262166776981401
  7.0716708622444999  7.1163941989872246  3.5360092229827087
  7.1053933978459245  8.7802136907958026  5.2956748926553923
  8.7921959668186780  1.7140125984484380 -0.0368110173838924
 12.3639702595288448  8.7654714269378591 10.5649083077805077
  1.7144750355365410  1.8107999543583315  3.5691188853164730
 10.6396598381563425  1.7245752853218537 12.3417551865082658
  1.7346496152980795  8.8442917420981573 -0.0494263902614319
  3.4569751043059838 -0.0557530687902465 10.5625878342823913
 -0.0586818113267175 10.5300348431852502 -0.0471886864604265
  1.7651644913045301  5.2220413947710664  3.4967811386988346
  1.7221820105274432 10.5980221765260136  1.7340776454059668
 12.3297884985502559  1.8063752965144904  7.0582015576493129
  3.4208367952575762 10.4292709632070579  3.5637066129433999
 12.3363295880176658  1.7815874691652300 10.5539621661038989
  5.2545971596874095  3.6027211286898342  8.7998853675990070
  3.4882891150006055  1.7469623760321724  8.8463649673384666
 12.3340481376677555  3.5649626591368202  5.3548815602857696
 10.6346707501611224 12.3176951119688241  8.8940293250209894
 -0.0493107075641292  3.5345608330291522  7.1140853998105698
  5.3151962689409054  3.5474055179345192 12.3082696446169830
  1.7347636323897215 10.5849631221500982  8.7940615869723047
 -0.0363145549634051  7.0587005550594055  7.0921408745973018
  8.8979503403184914  7.0468530453489073  8.8194737055405330
  7.0447021194541710  5.3302388593645968  5.3533047236919451
  8.8412706491361437  3.5724469872153723  5.3493008123271899
  1.6976540739780752  7.0726848340346704  1.7521900796337435
  8.8169777458513376 -0.0366454673379149 12.3368522908020886
 -0.0451205071572175 10.5492767807249983  7.0835918131241602
 12.3458497363462083 10.5182312456393365 12.3423765518300108
  8.8441181243383813  3.5630226309294013  1.7477970228813224
 12.3225261441208183 10.5237637990311814  8.8002330116132139
 12.3535906680419121  7.0578497542838052  5.3357826333432161
  7.0795842157190050  7.0289411900806282 10.5905188691095677
  3.5020923987863779 10.6302481965369164 -0.0606724249588223
  1.6821103064751977  1.8122216556810169 -0.1330900404410034
  8.8689184022059351  7.0478363230508361  5.3094505479924612
  3.5123286161485980  1.8095709088043064  5.2739945129630410
  4.3520566523840767 11.4600170926224294  4.1906997383175701
  2.6429525014594342  1.1168486133033120  0.8330057839057258
  1.7246547169210120  5.3984445415223172  5.3181415493437854
  9.0712470283705589  1.7573163179971931  8.8490772962173860
