POSCAR file written by OVITO Basic 3.5.4
1
36.451098919 0.0 0.0
0.0 36.451098919 0.0
0.0 0.0 18.2255494595
Cu H 
2000 29 
Cartesian
-0.00443669 -8.3027724989e-04 -1.9457715637e-04
-0.0043312864 1.8167352224 1.8219735781
1.8133135777 -0.0010462097 1.8221256492
1.812720156 1.815622001 -5.0068762209e-04
-0.0043501966 -7.9371281641e-04 3.6444821347
-0.0043566424 1.8167575646 5.4666866489
1.8132840661 -9.9111970423e-04 5.4666293446
1.8129189556 1.8157668057 3.644173578
-0.0044657698 -7.8446429835e-04 7.2892967286
-0.004688289 1.8166622622 9.1117726415
1.8129656169 -0.0010711955 9.1117075586
1.8126814239 1.8157068573 7.2890459609
-0.0046509515 -8.2961309945e-04 10.9346532955
-0.0048858992 1.8165652564 12.7572644172
1.8128080443 -0.0011709424 12.757406992
1.8122937415 1.8154744481 10.9344355404
-0.0046271295 -8.5968296567e-04 14.5802184862
-0.0046614079 1.8166051064 16.4026363888
1.8130343755 -0.0011461789 16.4029087482
1.8123168719 1.8154290841 14.5799650394
-0.0050171829 3.6352463835 -5.8638987852e-04
-0.0052703134 5.4556351181 1.8216568883
1.8116117806 3.6335826845 1.8215430253
1.8096397627 5.452923549 -0.0011138971
-0.0046521475 3.6354021734 3.6441207729
-0.00537719 5.4556541109 5.4662585645
1.8115417724 3.633575176 5.4664297632
1.8103072708 5.453160412 3.6436968688
-0.0051251561 3.6352880025 7.2889818403
-0.0065857806 5.4553396242 9.1114035922
1.8109013517 3.6332958724 9.1116813089
1.8094463199 5.4527612885 7.2889015043
-0.0057373269 3.6351050849 10.9343457355
-0.0071476793 5.4551853886 12.7570178342
1.8105421543 3.6330850331 12.7570994132
1.8083902739 5.4523898488 10.9343692944
-0.00567814 3.6350756614 14.5798452899
-0.0063511209 5.4553588846 16.4024038429
1.8109628077 3.633255493 16.4022679332
1.8085065697 5.4524650331 14.5795928412
-0.0062384034 7.2776728013 -6.34999731e-04
-0.0052341186 9.1017404194 1.8216655313
1.8091537721 7.2746077274 1.8210834224
1.8081316327 9.0978883372 -0.0010667702
-0.0053335117 7.2778652061 3.6437699327
-0.0054662441 9.1015280318 5.4657124311
1.8090490442 7.2744073983 5.4659382802
1.8096604815 9.0980744972 3.6432079096
-0.0065207327 7.2775613391 7.2884228043
-0.0078693099 9.1008685356 9.1107548601
1.806987704 7.2736211243 9.1114699658
1.8077652208 9.0972101223 7.2881487095
-0.0082516154 7.2771170838 10.9340170851
-0.009220968 9.1006040607 12.7569644288
1.8060650046 7.2734716292 12.7570381825
1.8048015917 9.0963053209 10.9341672797
-0.0080248094 7.2772151118 14.5798265438
-0.0075384052 9.1011812328 16.402756428
1.8073645445 7.2740607357 16.4020196545
1.8051665921 9.0968050039 14.5798231029
-0.0056323569 10.9264987086 -1.8839981418e-05
-0.0033144622 12.751993494 1.8221391299
1.8108970409 10.9233954887 1.8211929916
1.8112935159 12.7491143079 5.0063733029e-05
-0.0040050993 10.9266868023 3.6435529254
-0.0034998469 12.7515907333 5.4651297819
1.8104544709 10.9227353623 5.4650386368
1.8140589718 12.7493646613 3.6427993361
-0.0059858401 10.9259585928 7.2876416811
-0.006632444 12.7508176049 9.1099789614
1.8063820841 10.9212760264 9.1104871811
1.810436658 12.7478028599 7.2867656069
-0.008755409 10.9253299246 10.9335396177
-0.0084717042 12.7507183977 12.7570761309
1.8039514747 10.9209382815 12.7572472613
1.805514569 12.7466638557 10.9334762827
-0.008641297 10.9256242141 14.5803392477
-0.0064743601 12.7514450737 16.4038022734
1.806919658 10.9223234227 16.4028074999
1.8057506025 12.7474106496 14.5808427916
-0.0037573774 14.5768992705 0.0010460139
-0.0018254509 16.4014196518 1.8227733697
1.8160540901 14.5754679104 1.8219069786
1.8153778685 16.4008020858 0.0014604723
-0.0019243778 14.5768044213 3.6436021673
-0.0018583187 16.4011298825 5.4649600789
1.8153399064 14.5746776415 5.463886461
1.8182629001 16.4005040895 3.6427137422
-0.0038470607 14.5762870754 7.2869291703
-0.0047212717 16.4009428543 9.1095965198
1.8095947156 14.5733689943 9.1092008806
1.8143999772 16.3998612061 7.2855540653
-0.0069196114 14.5759772519 10.9332374157
-0.0065896636 16.4011190985 12.757456367
1.8062838993 14.5733309281 12.7574362801
1.8087116815 16.399655004 10.9330336401
-0.0069065966 14.5763677954 14.5811441099
-0.0047442087 16.4014432636 16.404829839
1.8102887763 14.5746069389 16.4044543707
1.8090295914 16.400302022 14.5818088975
-0.0028944297 18.2257599532 0.0017604002
-0.0019957345 20.0499634974 1.8232358195
1.8180239213 18.2256114732 1.8225584942
1.8149440146 20.0511326893 0.0017429224
-0.0012398556 18.2255415747 3.6439544658
-0.0022410186 20.049918233 5.4652625579
1.817299111 18.2253577232 5.4637143813
1.8174049641 20.0505143961 3.6432606098
-0.0030060923 18.2254587075 7.2869073535
-0.0048542952 20.0502005514 9.1100425529
1.8117808046 18.2256990912 9.1087615262
1.8136648001 20.0512165682 7.2859669741
-0.0056935858 18.2256729102 10.9334801495
-0.0063692967 20.0504680706 12.7580762091
1.8086029455 18.2262022553 12.7578561245
1.8087946353 20.0522080013 10.9334633492
-0.0057557088 18.2258815377 14.5818451691
-0.004665926 20.0502981671 16.405304786
1.8126464856 18.2262322129 16.4053193561
1.8095258516 20.0521121954 14.5822751908
-0.0038977445 21.8748296964 0.0019650468
-0.0042629447 23.699704636 1.8232479147
1.814735766 21.8762716344 1.8227673882
1.8105563012 23.7028266722 0.0014380409
-0.0026491541 21.8746032376 3.6442994598
-0.004580391 23.6999294991 5.4658291152
1.8138908777 21.8766148511 5.4646841716
1.812074374 23.7023971927 3.6438099255
-0.0043759873 21.8749846512 7.2874996356
-0.0067387463 23.7006843062 9.1109284992
1.8089948519 21.8781505903 9.1098302914
1.809054823 23.7037750824 7.287469616
-0.0066671304 21.8754358745 10.9342477913
-0.0077260296 23.7008596074 12.7585928357
1.8069393889 21.8785915948 12.7583058547
1.8054325346 23.7051113115 10.9344153571
-0.0064182983 21.8753199519 14.5822484827
-0.006170463 23.7002584774 16.4052704509
1.8105154233 21.8774404467 16.405278724
1.8064277417 23.7044700435 14.5821515069
-0.0063462226 25.5250792475 0.0015682295
-0.0069734159 27.3495622246 1.8229671077
1.8092228435 25.5284583279 1.8226696048
1.8068667411 27.3539626775 9.0474669496e-04
-0.0056573947 25.5249044768 3.6444922151
-0.0071620401 27.3499640281 5.4664294427
1.8083791981 25.5290995672 5.4657272261
1.8075000813 27.353731943 3.6442066898
-0.0068030522 25.5256555258 7.2883975004
-0.0082626828 27.3508410863 9.1117708584
1.8052938067 25.5306920073 9.1112462547
1.805781571 27.35493914 7.2886102501
-0.0083321363 25.5263372676 10.9349458686
-0.008805578 27.3510037102 12.7586261958
1.8040965825 25.5310898326 12.7585497611
1.8041200501 27.3558845748 10.9350785232
-0.0080099432 25.5259647966 14.5821481796
-0.0079302298 27.3501877183 16.4046142429
1.8066530344 25.5296568466 16.4046700057
1.8047845384 27.3552954067 14.5816686484
-0.0076628194 29.1732770906 8.9450117904e-04
-0.0070099842 30.9949085816 1.8226659524
1.8073950696 29.1768864397 1.8225458366
1.8085605613 30.9978789027 4.9853433384e-04
-0.0073972731 29.1731987713 3.6446469373
-0.0071234793 30.9951713632 5.4668607061
1.8069178596 29.1773692812 5.4664191655
1.8087230351 30.9978216812 3.6444665716
-0.0078826569 29.1738717823 7.2891279823
-0.0075019471 30.9956470022 9.1121093552
1.8056623403 29.178356504 9.1118678485
1.8081034612 30.9984011336 7.2890625013
-0.0084766839 29.1743580184 10.9351978582
-0.0076016873 30.9956644159 12.7582088381
1.8054073761 29.1784195607 12.7583576952
1.8075826146 30.9988021304 10.9349914839
-0.0083274437 29.1739906902 14.5815169668
-0.007319135 30.9952190868 16.4038016723
1.8064147595 29.1775660515 16.4040490262
1.8078433285 30.998483823 14.5811220686
-0.006070141 32.814770467 2.9978711793e-04
-0.0049758624 34.6329177317 1.8223556985
1.8108203126 32.816414945 1.8224467063
1.8124574996 34.6335562108 9.9887214026e-05
-0.0060181615 32.8147624006 3.6446816496
-0.005029354 34.6329743024 5.4669204351
1.8106715144 32.816577324 5.4666754777
1.8125951035 34.6335905229 3.6444654952
-0.0062188678 32.8149963632 7.28939691
-0.0051874852 34.6330554952 9.1120261315
1.8102261363 32.8168825126 9.1118436732
1.8123402516 34.6336697878 7.289090545
-0.0063705699 32.8151567811 10.9349941913
-0.0052403927 34.633052657 12.7576849819
1.8100813391 32.8169251531 12.7578882037
1.8120371563 34.6337179419 10.9346582561
-0.00629192 32.8150182575 14.5807967151
-0.0051034957 34.6329679102 16.4031324132
1.8104578913 32.816612989 16.4034994347
1.8121191917 34.6336393081 14.5805295895
3.6326364485 -0.0014619246 -7.0238639563e-05
3.6317417532 1.814403295 1.8217260751
5.4544906161 -0.0014868153 1.8221649461
5.4525645853 1.8130421402 -4.7886059667e-04
3.6328913403 -0.0012456101 3.6441924289
3.6317024937 1.814477021 5.4662953649
5.4543198196 -0.0014174819 5.4659725398
5.4528681449 1.8136872704 3.6437061398
3.6324897485 -0.0013571723 7.2887290991
3.6312296104 1.8140338283 9.1114985679
5.4535263848 -0.001918602 9.1110197358
5.4523279664 1.8130310728 7.2883819928
3.6320350739 -0.0016249317 10.9343487123
3.6309864511 1.8137264079 12.7572125788
5.4532169212 -0.0022625658 12.7573639256
5.4517573308 1.8121114636 10.934183105
3.6321258886 -0.0016754098 14.5803255351
3.6313287636 1.8139774839 16.4026018919
5.4537741553 -0.0020297738 16.4033108467
5.4519109477 1.812134859 14.5801232588
3.6291159881 3.630854226 -0.001138227
3.6265340282 5.4493353586 1.820645861
5.4490687334 3.6288000018 1.8208562073
5.4444033778 5.4450131175 -0.0025992644
3.6293436841 3.6311262478 3.6436691703
3.6263651216 5.4490821058 5.4662050219
5.448987282 3.6287824818 5.4659384608
5.4443400002 5.4451929686 3.642829374
3.6290441091 3.6308367034 7.2889556654
3.6254741933 5.4484712486 9.1119784151
5.4484926722 3.6276461652 9.1116236627
5.444077873 5.4445351063 7.2893987752
3.6285081031 3.6302730753 10.9344421379
3.6250109811 5.4481957029 12.7570641653
5.4482970677 3.6270817534 12.757153789
5.443638969 5.443626386 10.9349332896
3.6285506716 3.6302812893 14.5796555005
3.6256218732 5.4487102982 16.4015343983
5.4487406906 3.6278417016 16.4019488969
5.4438018303 5.4439057121 14.5790509893
3.6236197181 7.2693581683 -0.0022863524
3.6236358797 9.0920576349 1.8198838201
5.4404411304 7.2636876645 1.8187939194
5.4371245755 9.0845216645 -0.0050445492
3.6246170055 7.2695185975 3.6429641482
3.6233601584 9.091394357 5.4656909621
5.4398202119 7.262773859 5.4663943314
5.4382667839 9.0841127254 3.6419523965
3.6231222021 7.2685565168 7.2892033747
3.6198121252 9.0900809085 9.1121702563
5.4388712661 7.2620850337 9.1132986043
5.4355292196 9.0824495032 7.2909112973
3.621626714 7.2680734935 10.9348173624
3.6186385396 9.0902519906 12.7571866667
5.4386116737 7.2620758431 12.7571082767
5.4339343322 9.0824884677 10.9361163415
3.6219166407 7.2684979474 14.5791214975
3.6208552379 9.0914347255 16.4009651769
5.4394559004 7.2630650653 16.3997535537
5.4348410645 9.0836228752 14.5777186318
3.6232555049 10.9168489963 -0.0024113957
3.6290235283 12.7441564893 1.8200235037
5.4379705422 10.9077726202 1.8175486904
5.4385397708 12.7352442455 -0.0062808319
3.625579095 10.9166847628 3.6423867041
3.6276914841 12.7428263868 5.4645799383
5.4371911482 10.9066009916 5.4664050229
5.4415769298 12.733767049 3.6419004635
3.6221173217 10.9151900413 7.2883272568
3.6201206716 12.7405427428 9.1109803422
5.4312327492 10.9051311026 9.1146117532
5.4355691377 12.7321607624 7.2904197493
3.6170346862 10.9139515895 10.934925375
3.6162347122 12.740375203 12.7576173775
5.4306470324 10.9063863271 12.7571820173
5.4275347203 12.7313261239 10.937147029
3.6181332447 10.91516088 14.5793406611
3.6220220904 12.7427348834 16.4016977181
5.4341585619 10.9080397722 16.3977873029
5.4307332513 12.7335706101 14.576887796
3.6300417065 14.5716421141 -0.001179667
3.6375412128 16.399415002 1.8210537959
5.4482685712 14.5651857548 1.8173869744
5.4477193651 16.3968788699 -0.0062146079
3.6347179418 14.5717543642 3.6419235233
3.6352617054 16.3983070821 5.4630273219
5.4450425781 14.5630526952 5.4660784737
5.456075099 16.3959614583 3.6416003473
3.6271547701 14.569280862 7.2865532317
3.6242061933 16.3970502512 9.1094286079
5.4314160159 14.560538834 9.1138201121
5.4412711635 16.3932379077 7.2891454703
3.6183694787 14.567926999 10.934098038
3.6192050099 16.3973579543 12.7578276827
5.4266069895 14.560967074 12.7576922642
5.4273478658 16.392528978 10.9360695287
3.6196211662 14.5693298772 14.5804473793
3.6270415185 16.3988663137 16.403212632
5.4366916394 14.5642459741 16.3968279496
5.4323629977 16.3940851833 14.5773394231
3.6340654696 18.2265775307 1.9874317378e-04
3.6358325343 20.0528451846 1.8216775012
5.4562749133 18.2275565062 1.8185202794
5.4478359968 20.0579118204 -0.0034569257
3.6388266894 18.2256993042 3.641996683
3.633812785 20.0530230822 5.4636706485
5.4516482444 18.2264997403 5.4648457957
5.4532559854 20.0574417192 3.642188257
3.6308172522 18.2257598304 7.2854048004
3.6237247806 20.054929679 9.109501372
5.433444049 18.2265936347 9.1127149031
5.4405756562 20.0591680106 7.2891695548
3.6210270936 18.2262953332 10.9336591234
3.6201648185 20.0554671185 12.7579866564
5.4289741524 18.2265806536 12.7568288247
5.427967549 20.0604081682 10.9350250484
3.6233695563 18.2267670144 14.5812073921
3.6277684807 20.0543452875 16.4040474553
5.4420696545 18.2272743342 16.3986244079
5.4338740852 20.0596540803 14.5778752186
3.6290752824 21.8809024732 4.4760874733e-04
3.6269500194 23.7078631846 1.8219430802
5.4464865075 21.8872593166 1.820200455
5.436996572 23.717809587 -0.0021306593
3.6319440036 21.8801569388 3.6429583103
3.6250001266 23.7089969176 5.4652453788
5.4423781275 21.8887221688 5.4662342156
5.4393505236 23.7173928998 3.6435978058
3.6255752027 21.8823050396 7.2870116432
3.6186493835 23.7116861295 9.1112577532
5.4305536783 21.8920145023 9.1133374224
5.4318281681 23.7207864887 7.2903007448
3.6184494692 21.8843211519 10.934204473
3.6163441988 23.712361281 12.7583056609
5.4267705857 21.8926911408 12.7571630017
5.4258834421 23.7229148601 10.9360884972
3.6208274766 21.8833372681 14.581475132
3.6217512527 23.7099219675 16.403858085
5.4370709079 21.8898479479 16.4001534064
5.4291280046 23.7213255302 14.5789554117
3.6217517817 25.5356217729 2.8050388235e-04
3.6216721856 27.3601592746 1.8221214471
5.4355690187 25.544808689 1.8210512292
5.4356165249 27.3685488562 -7.1110549428e-04
3.6230181929 25.5352483641 3.6437292498
3.6204590372 27.3610898078 5.4661992751
5.4330789318 25.5464701133 5.4670185657
5.4358997325 27.3684901623 3.6441037451
3.6191621596 25.5374669646 7.2885595122
3.6176254045 27.3629843167 9.1119975087
5.4278915279 25.54941118 9.1132793232
5.432927422 27.3707671272 7.2897891921
3.6157750531 25.5391176765 10.935200016
3.6172616354 27.3630220876 12.7584089441
5.4277679688 25.5489739243 12.7580512791
5.4311472189 27.3722032753 10.935678784
3.6173125958 25.5380086916 14.5812917979
3.6195239929 27.3614247638 16.4037701991
5.4317524504 25.5465868365 16.401898449
5.4326040445 27.3708540593 14.5806012167
3.6225733731 29.1824902118 3.6625074019e-04
3.6261066662 31.0012886049 1.8223961421
5.4404335767 29.1874578621 1.8220439478
5.4454316241 31.0046796635 4.0136322941e-04
3.622830725 29.1823370838 3.6442019359
3.6256776308 31.001668565 5.4664506216
5.4394926547 29.1882601483 5.4666326167
5.4456955959 31.0041957162 3.6443058081
3.6213015958 29.1835699752 7.2889589682
3.6246806914 31.002574289 9.1117711313
5.4376396131 29.1902208363 9.1122030846
5.4446625379 31.005388924 7.2888289576
3.6202155676 29.1844517362 10.9351312804
3.6244277749 31.0027891914 12.7581089861
5.4373179964 29.1906793506 12.7582940305
5.4436063595 31.0066972025 10.9348807828
3.6209186858 29.1837955558 14.5812371339
3.6253535467 31.0019504683 16.403723618
5.439131696 29.1888292787 16.4033453819
5.4441688762 31.0061806235 14.5811183841
3.6293342614 32.8184844265 3.9149674092e-04
3.6320563569 34.6342682673 1.8223503362
5.4505667222 32.8196688171 1.8225295721
5.4533944571 34.6347147404 5.0127819496e-04
3.6295457139 32.8183626116 3.6443744583
3.6319326569 34.6343532512 5.4663985184
5.4502992589 32.8199306895 5.4662178423
5.4537259931 34.634716484 3.6442143305
3.6289953969 32.8187815572 7.2888231561
3.6313256616 34.6344621575 9.1114580961
5.4493058242 32.8208928109 9.1113186271
5.4530719255 34.6349824659 7.2883365564
3.6283788526 32.8191947218 10.9346715208
3.6311043805 34.6344221593 12.7575971567
5.4490260134 32.8211418787 12.7578454638
5.4523703529 34.6350586759 10.9342430436
3.6286153595 32.8189834673 14.5808936561
3.6315454487 34.6342981278 16.4033833265
5.4498166222 32.8204327963 16.4038186256
5.4525602629 34.6349106861 14.5808024797
7.2775910623 -0.0018695365 4.8276744894e-04
7.276063286 1.8134663262 1.821622418
9.1024526252 -0.001445734 1.8224300603
9.1004484518 1.8130919486 1.0173469888e-04
7.2779610462 -0.0013139505 3.643837273
7.2757842133 1.8133476614 5.4653676969
9.1023279544 -0.0012402852 5.4651591365
9.1008031007 1.8145281321 3.6430698832
7.2772838029 -0.001708089 7.2877347038
7.2747591563 1.8115498589 9.1106892346
9.1014880481 -0.002053212 9.1099731044
9.0998941208 1.8129628264 7.2870359269
7.276422962 -0.0025152085 10.9338235875
7.2744533252 1.8106011419 12.7572495921
9.1010300531 -0.0028474056 12.7573403926
9.0988687206 1.8103874377 10.933572367
7.2766100442 -0.0026315455 14.5807550551
7.2751877431 1.8116563456 16.4030469878
9.1017324708 -0.0024013437 16.4041486886
9.0992069427 1.8104243891 14.5806453777
7.2713153482 3.6270585894 -0.0015129947
7.2647657182 5.4422894331 1.8190650677
9.096482197 3.6291371826 1.820429724
9.0888914033 5.4409561108 -0.0038683246
7.2714964198 3.6282947461 3.6428466317
7.2644283991 5.4419703151 5.4658209556
9.0957200745 3.6285201704 5.4645407638
9.0885613548 5.4427466672 3.6415046909
7.2706717748 3.626588048 7.2882514063
7.2642919108 5.4399961568 9.1126195733
9.0942429713 3.6245318957 9.1107655035
9.0872765214 5.439222248 7.2889262374
7.2701765553 3.6246416949 10.9343978724
7.2645187628 5.4394390347 12.7572404955
9.0941885737 3.6228654008 12.7573169921
9.0872623813 5.4362683498 10.9353739365
7.2705737298 3.62496572 14.5797514221
7.2650790972 5.440985116 16.4003558784
9.0953369553 3.6253505989 16.4022686658
9.0883151689 5.4374482224 14.5788159551
7.2584920246 7.2581521186 -0.0058591782
7.2527306518 9.0762048949 1.8153975212
9.0781811438 7.2544185185 1.8158744057
9.0711667569 9.069908935 -0.0121897635
7.2573369373 7.2575456667 3.6416200362
7.2508771339 9.0736453967 5.468011961
9.0769551822 7.2531313098 5.4667305243
9.0670968108 9.0672396646 3.6401712082
7.2574463473 7.2566436412 7.2914255895
7.2511500429 9.0743754508 9.1166399322
9.0788163901 7.2509322686 9.1152627806
9.069087112 9.0669905832 7.2964111228
7.2577785566 7.2558511201 10.9363213418
7.2518440577 9.0753618788 12.7569312763
9.0802425248 7.2512785328 12.7573087978
9.0719044764 9.0676185381 10.9386267589
7.2583326671 7.2568237261 14.5775298865
7.2525987198 9.0766999597 16.3955827276
9.0807415331 7.2538593452 16.3966415328
9.0732414413 9.070021162 14.5742317385
7.2494802562 10.8989430778 -0.0111411441
7.2499167897 12.7211553168 1.8130075932
9.062519057 10.8861376632 1.8086287532
9.0611971586 12.7136434093 -0.0198118162
7.2504565297 10.8960243219 3.6412214542
7.2501062583 12.7196845746 5.469932934
9.0566342319 10.8801390049 5.473869567
9.0559456186 12.7027761169 3.6400749744
7.2454105292 10.8940220628 7.2958978931
7.2396970631 12.7204455443 9.1216193772
9.0635605207 10.8861681499 9.123036488
9.0484847922 12.7034707218 7.3100713851
7.245678395 10.8965955521 10.9384584739
7.2426437059 12.7237633225 12.7559813127
9.0658857223 10.8891414521 12.7552470518
9.0573530718 12.7135224537 10.9406095673
7.2479418483 10.898963067 14.5740999654
7.2471367164 12.7247463 16.3905922195
9.0650002017 10.8902437501 16.3883261865
9.0623335107 12.7161232922 14.5663129341
7.2503420317 14.55448994 -0.0163402149
7.2611004021 16.3906597815 1.8101118422
9.0493075167 14.5357946823 1.8000895742
9.054894751 16.3824458656 -0.0292444133
7.2553261761 14.5487748627 3.6427171656
7.2579171697 16.3876316111 5.4727235451
9.0511649739 14.5347503917 5.4823797294
9.0422457185 16.3735482361 3.6400397564
7.2452972165 14.5500029413 7.2979133289
7.2355355018 16.3860821466 9.1215961794
9.0434578395 14.5418083977 9.1326754346
9.0427048538 16.3775003907 7.3147288718
7.2353005506 14.5516536671 10.9409236037
7.2346280967 16.3856103582 12.7541603028
9.056776135 14.5451841279 12.7499350832
9.0418653179 16.379846779 10.9408117271
7.2429392153 14.554184156 14.5700192504
7.2496415165 16.3896836793 16.3861298173
9.0568616565 14.5443823604 16.3777054587
9.053518803 16.3807849883 14.5563448552
7.261061402 18.2290182379 -0.0149577024
7.2650542864 20.0657825487 1.8142124666
9.0608875874 18.2284488102 1.8017319573
9.0569391508 20.0782577615 -0.028246635
7.2685669762 18.2301896118 3.6435305596
7.2585309333 20.0661501288 5.4718485451
9.0497806206 18.2282342101 5.4918322602
9.0598813374 20.0829100338 3.6447621775
7.2460033227 18.2275537943 7.2990302679
7.2381919917 20.0669129142 9.1198799628
9.0330429401 18.2244434967 9.1335126546
9.0446654282 20.0779241718 7.3133440678
7.2318961678 18.2259136277 10.9382432974
7.2346015761 20.0667463928 12.752247573
9.0349947788 18.2218224145 12.7442690742
9.0356727528 20.0743106427 10.9391844294
7.2414917707 18.2259105298 14.5686917445
7.2489711765 20.0661745732 16.3899159075
9.0529098648 18.2271599518 16.3712296818
9.038522835 20.0752712815 14.5567782994
7.2521451158 21.9006734019 -0.0087544153
7.2479975875 23.7317784142 1.818478231
9.0566043501 21.9225146745 1.8150331283
9.0559311121 23.7452450895 -0.0123719863
7.2550187279 21.9007483469 3.6447344569
7.2438268507 23.7348840559 5.4710331327
9.0458809949 21.9245385209 5.4829780531
9.0544365711 23.7492261951 3.6481640026
7.2418516975 21.9030884846 7.2968083622
7.2353678584 23.7371643253 9.1176203009
9.036471707 21.9223732241 9.1245366175
9.0497068925 23.7521495181 7.3038819402
7.2340952258 21.9043213569 10.9385828086
7.2374596025 23.7350976162 12.7559561815
9.045231538 21.9171010715 12.7498847902
9.0464967443 23.7523523397 10.9388912161
7.2395497018 21.9034180025 14.5715022042
7.2424287072 23.7329408165 16.3962886673
9.0506603569 21.9192910228 16.381663811
9.0519321607 23.7480968579 14.5694506767
7.2472398544 25.5562237583 -0.0042012817
7.2530378873 27.3752894216 1.820995952
9.0622322208 25.5662732218 1.8185677589
9.0737015602 27.3798560875 -0.0034116024
7.2471310505 25.5569445847 3.6448299128
7.2515231284 27.376654396 5.4681916783
9.0609147184 25.5674768932 5.4732663428
9.0735800253 27.3787664748 3.6457511862
7.2424156359 25.5603123483 7.2934384863
7.2488579507 27.3798514726 9.1139769159
9.0588457518 25.5711383276 9.1187921393
9.0718561223 27.382836268 7.2931819726
7.2401612319 25.562041683 10.9370219239
7.2487322245 27.3803013917 12.7581482654
9.0599096417 25.5709233855 12.756590053
9.0694006938 27.3874071152 10.9369823111
7.2428124309 25.5594246173 14.5775445993
7.2514506969 27.3771631058 16.4012416529
9.0618470925 25.5673330188 16.3955718266
9.0714178673 27.3848306321 14.5784036414
7.2602920702 29.1918233036 -4.3189021423e-04
7.2680967633 31.005393341 1.8225572751
9.0842989413 29.1912537872 1.8221546804
9.0924235831 31.0057790763 0.0010678519
7.260553703 29.1908694931 3.644467565
7.2675988901 31.0059971297 5.466356916
9.0838291077 29.1923533999 5.4675112943
9.0930061814 31.0041410049 3.6445333901
7.2589405769 29.1933222641 7.2897722766
7.2659866805 31.0086193351 9.1116258312
9.0815351321 29.1976315091 9.1130455355
9.0912922543 31.007507191 7.2885302844
7.2572063705 29.1960312177 10.9355451086
7.2657442107 31.0093747641 12.7581725711
9.0814677902 29.1987345016 12.7584084756
9.0900653108 31.0104641293 10.9349407103
7.2583367052 29.1948327459 14.5807529394
7.2670335929 31.007503277 16.403867222
9.0831406582 29.1951805867 16.4027578231
9.0907801206 31.0095483664 14.5814982933
7.2734263788 32.8203709293 9.5938811072e-04
7.2771411533 34.6345649783 1.8226435663
9.0987244881 32.8187214442 1.8230978637
9.1014578036 34.6341881674 0.0013187271
7.2738319149 32.8197647371 3.6442924541
7.276907899 34.6348809951 5.4657613526
9.0983036894 32.8194706208 5.4657262964
9.1018128938 34.6341249295 3.644099646
7.2728217067 32.8211208542 7.2881745433
7.2759489936 34.6353419098 9.1106587179
9.0969734265 32.8218634433 9.1107048742
9.1011741899 34.6348316589 7.2874541803
7.2719262159 32.8223549133 10.9343548326
7.2755574899 34.6353493125 12.7575827547
9.096587384 32.8227834851 12.7580028228
9.1003504442 34.6354769881 10.9337308605
7.2722938314 32.821961094 14.5812573095
7.2762985068 34.6349265053 16.4040724625
9.097576021 32.8209013346 16.4047145183
9.100527038 34.6350979243 14.5813918173
10.9272841665 -0.0019128433 0.0011775387
10.9261462873 1.8151363148 1.8217626178
12.7525569372 -0.0014891285 1.8227438902
12.7513767958 1.8147017208 6.6854148623e-04
10.927541583 -0.0011211605 3.6436579799
10.9258808905 1.8153017255 5.4641654991
12.7525610943 -9.5872177493e-04 5.4647431721
12.7514782997 1.8167045836 3.6426580131
10.9271935064 -0.0013057832 7.2867323214
10.9249279883 1.8125043188 9.1093178703
12.7524073017 -0.001410611 9.1092346833
12.7511322973 1.8154495825 7.2857237327
10.9266904723 -0.0022638471 10.9331490106
10.9244809966 1.8103179861 12.7571552099
12.7523688209 -0.0021484424 12.7572276604
12.7508166627 1.8124592859 10.9325911413
10.9267516709 -0.0026476918 14.5812920371
10.9253923844 1.8123054286 16.4039699056
12.7523845702 -0.0022472031 16.4046536723
12.7509275834 1.8120152676 14.5810604735
10.9223083191 3.629306439 -8.8008098565e-04
10.9163625864 5.4461458097 1.8182558282
12.7490054408 3.6335716405 1.8203682951
12.7443615013 5.4469826794 -0.0032486648
10.922528086 3.6319223876 3.6416566428
10.9145039504 5.4439259487 5.4637664935
12.7483678469 3.6334082644 5.4625845834
12.7439666522 5.4510134695 3.6395063486
10.9209437339 3.6283148506 7.2862873213
10.9122297651 5.4365303195 9.1117517699
12.7470573692 3.6276275252 9.1088111039
12.7415201092 5.4434888734 7.2860152967
10.9195490173 3.6231569028 10.9337476437
10.9130169458 5.4346595967 12.7576410448
12.7466817827 3.6236468813 12.7570883933
12.7397462495 5.4346883831 10.9348372155
10.9203930053 3.6236338293 14.5803249585
10.9150122915 5.4392883371 16.4000617622
12.7482313765 3.6280536185 16.4033803372
12.7414501361 5.4365805595 14.5792951903
10.9052837606 7.2540799184 -0.0090082705
10.8884820266 9.0644201851 1.8104708784
12.7366298442 7.2648647164 1.8139913679
12.7198138067 9.0649993912 -0.0168340915
10.903374612 7.2565789713 3.6399738338
10.8847716589 9.0596104111 5.4709170941
12.7325327776 7.2593019974 5.4646590351
12.714766769 9.0656287408 3.6387267693
10.9022045201 7.2500594493 7.2914198994
10.8927719741 9.0603623682 9.1202667237
12.7299517666 7.2453766585 9.1155323402
12.7167548633 9.0553016321 7.3004845748
10.9040460868 7.2468972071 10.9374536907
10.8967089123 9.063518233 12.7563488412
12.7327181265 7.2456670782 12.7577486506
12.7237756621 9.0557634042 10.9402500213
10.9063127795 7.2501312809 14.5766593211
10.8970089296 9.0674425354 16.3900240969
12.7354392571 7.2536140348 16.3953295184
12.7253716616 9.0651415887 14.5723391724
10.8821455385 10.8812460745 -0.0208198907
10.8604722808 12.6981030563 1.7987160567
12.6949613088 10.8598052104 1.7996998491
12.6847302631 12.6977418899 -0.026248598
10.8663575254 10.8680479686 3.6427619116
10.8469952865 12.6870315392 5.4868561981
12.6932399683 10.8511995283 5.4804291846
12.6363347241 12.6459305038 3.6021433649
10.8784180602 10.8746555468 7.3049744633
10.8764225926 12.7017374869 9.1348795003
12.7086946886 10.8650184811 9.1317947415
12.6828601735 12.6745338941 7.3277369277
10.8882645399 10.8810051014 10.9407703336
10.8794718286 12.7064819836 12.748199287
12.7160310227 10.8757345028 12.7499406972
12.708868484 12.7004767619 10.9415450064
10.8900450114 10.8848517496 14.5687538173
10.8755579115 12.7052637599 16.3782352579
12.7145825088 10.8842690158 16.3849073648
12.6980801836 12.6963565642 14.5537244344
10.8591186597 14.5343604009 -0.037282405
10.8227524945 16.3569551644 1.8023693458
12.6338874154 14.5235795949 1.7937312615
12.6125472296 16.3740181096 -0.0344590208
10.8216701164 14.5223266217 3.6385642811
10.8129487323 16.3606569787 5.4850537989
12.5765266293 14.5651846456 5.5515121091
12.6086641027 16.3338455612 3.6378938012
10.8339869191 14.5204044399 7.3365273272
10.8484501359 16.3756810015 9.1421952862
12.6908126882 14.5279622676 9.1323467086
12.6265385976 16.3565961482 7.3484290379
10.8727964276 14.539027483 10.933590715
10.8652733938 16.375413859 12.7339319418
12.6880467549 14.5346387326 12.7342495491
12.6907575401 16.3818686354 10.9201723576
10.8752804482 14.5372579399 14.5576010981
10.8518916636 16.3759099301 16.3620062066
12.681015267 14.5283075737 16.3718645251
12.6614083137 16.3767855368 14.5417074561
10.8403829645 18.2305808933 -0.0504754004
10.8235838289 20.0964752148 1.7938424405
12.545252686 18.1648786489 1.7820007611
12.5666864995 20.1168232362 -0.0455819053
10.7904467872 18.2157709032 3.651839169
10.8204244297 20.0942921556 5.5068055844
12.5312156877 18.1506137089 5.4673146566
12.5337166134 20.1452559345 3.6806300968
10.822091828 18.2231568305 7.3415222583
10.8216544449 20.0882677575 9.1407913045
12.6538904778 18.2196009609 9.1504009866
12.6066381009 20.1571176655 7.4172914767
10.8384902505 18.2197244947 10.9423053042
10.8372293755 20.07515032 12.737035446
12.6650243447 18.2216863078 12.736561851
12.6288822163 20.0282713606 10.8822685502
10.8347476416 18.2311127935 14.5282088412
10.8347301992 20.0910685711 16.3506206058
12.6075616389 18.2396079264 16.2878514101
12.649839185 20.0918944161 14.5275843286
10.8565589975 21.9417887028 -0.0293836739