Cr Co Ni  H 
 1.0000000000000000
    14.1120004653999995    0.0000000000000000    0.0000000000000000
     0.0000000000000000   14.1120004653999995    0.0000000000000000
     0.0000000000000000    0.0000000000000000   14.1120004653999995
 Cr  Co  Ni  H  
  85  85  86   4
Cartesian
  1.8162589209666407  1.7603274106753406  3.5936791153853744
 10.5944335695136509  1.7030751611090036  1.6805722989693404
  7.0684055261152947  1.7829977320820267 12.3266319072883803
 -0.1057690298040692  3.5394687412919903 -0.1273931853700513
 10.4897289306305854  1.7359543619674216 12.4310826970456265
 10.4604637457602685  8.8537089064365393  5.2542348967484882
 -0.0881255685069427  3.5066137509852706  3.5213063613123765
 12.3078872055084663  3.4997285964905029  8.9091623876806949
  1.7319851113194320 -0.0578968244296719  1.6882276991051623
  7.2085717982915263  7.0102404031337189  7.0857638576326147
 12.3232279891598733  8.9293594210927800 10.6129896335879206
 -0.0674133549974899  8.8730440082283781  8.8508985752112270
  8.8337200803707390  5.2973904456363510  3.4916896892343678
 12.3278560325397439 12.4231041936715929  7.0308474624889294
  7.0541587699835846  5.2783014465524269  5.2912450926579453
 -0.0699602733183877  1.7373391257301214  1.6503141839100393
 12.2567286183424642  1.6971485948297629  3.5155402070237112
  7.0490502219485531  5.2198495141743591 12.3197744939991658
 12.3221488279303735  5.3291211313812905  7.1505102346570233
  3.5713730726704265 10.5847170761368616 10.6726903605884420
  3.5608330974958080  8.9327300836099894  1.6735524642759811
  5.3808963921342103 12.3347521694108249  7.1121414848033666
  1.7363848692262944  8.9826242870470576  3.3878179986563590
  3.5113409716939401  5.2527527165234478  5.4045124392975676
  3.6052603859932590 -0.0275840580840712  7.1221827082929581
 12.3142170892654104  7.0970901849431822 12.3034773554915091
  5.3239760670635556  5.2617793975564462  0.0126351028440312
  7.1444546955115591 10.6671213815148658  3.4392702413762977
  8.8250792095363479  7.0674894021226304 12.3546671497022871
  5.3167428916453359  7.0769407283044199 12.3084270019655087
  7.0810982676564125  8.8132990393949893  1.6831388501769100
  3.5122454950959545  7.1203493964121281 10.5793150148826438
  3.4784019117966594  7.1033408163132048  7.1385206157104282
 10.5236084923626070 10.6273726718297965  7.0840663983208030
  8.7908578671904607 -0.0712402214387263  1.7348086581656457
  8.8023711397261479 12.4014174599097053 10.6630950447363340
  3.5103241721419360 -0.0245084784486944 10.5679379931937270
  3.4353041130289332  8.8725953021347852  5.2827566843972296
  1.7437294999461377  5.2262058542866736 10.6139803765000966
  7.0590776437708564  1.7108374579285142  5.3590055908217424
  3.5657710117227479  5.1874452909067683 12.2971066296782130
  8.8359913451597283  3.4947965131945500  5.3802318538865590
 10.5377941857989530  8.8392976520301421  8.8709869416312870
  0.0720665709578443 -0.0517746718586813 10.6515276411254920
 12.3670309397351144  0.0218101589621453  8.8618541553301799
  7.0926857760362454 10.5891740658916156 10.6664204007993657
  1.7807014708486155 10.6143398908664164  8.9304729611008256
  8.8014561188718918  3.4627684855018770  8.8020315648914842
  3.5715996774462195 12.2869941627090622  1.7209995386704191
  3.5663006015351608  1.6835530805891461  1.6927541279484513
 -0.0195460294472013 10.6348494306827490  7.0770154626536925
 10.5920141804593673  7.0490145428758257  3.3766218398207561
 10.5236606499181615  3.5250371156251430 10.6475786500881231
 12.3366337870973588  1.7458147890083540 10.6899786293085164
 -0.0913938832692233  5.2956817888413754  1.6716593895723466
  7.1891696895387316  8.8553279736205273  5.2934875645024055
  6.9864395861047450  3.4882699470297505  3.4944256836721443
  5.3391229622724961  7.1066260867197721  5.3299302572646283
  3.5713251208142087  1.8007669925961336 12.3326970352613383
  5.3112175648957827  8.8378094204185409  3.4514781476868244
  3.6083252807466981 -0.0725521781185437 -0.1153614130438563
  0.0604530899736502  7.0489265800944940  7.1542470089278414
 10.6192972196277839  3.5467800222920158 -0.0094925321609750
 12.2238853411449870  7.0250000997703221  5.3513050691537369
 12.3084891297514449  8.9142464593649766  3.3760379588884870
  1.7653460347127363  7.0798771452664733  1.5816239904306153
  5.3057377417807166  1.6303923785343017  3.5200383060533644
  0.0283749984038139  7.0612616683821567  3.4172984029977385
 10.5553074037503674  1.6998895112013570  5.3531236748542650
  1.7748906028744056  5.2492083851240618  3.4806814750928798
 -0.0471381222087031 -0.0578383473373684  3.4626306006890109
  3.4740913403490832 10.6578810229966976  7.1074653716471037
  3.5397876102427102  5.2147235660897628  8.8330053927745595
 -0.0507775106138403  1.6978369281387464  5.3469588294976820
 -0.0191155332396891  3.5097979250399920  7.1403412587524357
  1.8185733245520215  1.7189167474891001  7.1428353877966106
 10.5237969316068209 12.3774802974788614  8.8691187984796240
  7.0561828342856820 10.6802935710373035 -0.0606426823156038
  5.3525540561571905 10.6361838701034923  5.2785270343539095
  0.0448246434456772  5.2863610142736226  5.3040640543166004
  0.1352480629175463  8.8869296911738331  5.3577596759171779
  3.6507718442897827  3.5260477370030769  3.5209004141147870
  1.7736349777852147  3.4784615290499596  1.6532346877377906
 12.3176239728455350 10.6168843231140357  5.2280051880700427
  3.5169950879301402  7.0310481879850277  3.4818752108068192
  8.8666032368139334  8.9069643937826637 -0.0906127037743621
 12.3210400604709065 12.2898866818626935 10.6479007214960308
  3.5596681578723302 10.6187604673810476 -0.1493601426849128
 10.4618341246987274 10.6758903173782240  3.4792448891304062
  7.0665287501820124  8.8186053774237383 12.3963454195382852
  1.7408789325721696  5.2147418095030487  7.1392900735252685
  8.8099359907906329 -0.0941146405168650  5.3003620799234827
  8.8152989354161484 10.7197471714556407  5.3148709567817400
  1.7292777903383314  7.1340179304468432  8.9012409938186714
  5.2799806800382010  8.8416751415465669 -0.0664462085901220
 -0.0425126390028462  7.1268079168856122 -0.0848597174512883
  0.0172232376564104 12.3532425022655161  8.8769932098531861
 10.5628341349871704  5.2741441363926524  5.3517674777475213
  1.7924865838311042 -0.1281178549045272  5.2695868578256855
 10.5771551415185563 -0.1464014001347528  3.5488377199343142
  1.6701708000448576  8.7851831902776194 10.7021183804406963
  3.5326851434927042  5.2782003615057347  1.6991036011033631
  5.3239315871700263 12.4569058310213130  3.5352630086935495
  8.7889546124876006  3.5808931041066856 12.3678514289175308
  3.5318178507493019  7.0801524937443521 -0.0631262636221736
 10.5696331866870139  0.0055261489221684 10.6669700677794026
  5.2958566557454763  3.5086694203113318  5.4181163763469113
  1.8018934053277169  3.4990455585852214  5.3462875513762427
  7.0267026982042760  0.0272709214166372 10.5371214093652164
  8.8889284677540594  7.0179553749240027  5.2822097842929416
  8.7896077455848580  5.2486737956855576  0.0771193925028724
  8.7863748579109284  3.4918670152188334  1.7533898697527801
 10.4322739463834893  7.0561045037756500  7.0874580336535162
 10.5505091103322641  8.9334108458245680 12.3900305698633186
  1.7494627689284017  1.7242325846085427 -0.1196716707357340
  5.3459759923810042  5.2394422176532363  7.1346320392623133
  7.1089434868428194 -0.0904348070068442  3.5648201793939083
  8.7757188905205030  0.0473409043898152  8.8126869575130957
 12.3540262279246207 10.6471823824639280  1.6982323878805903
  1.7639848201649309 12.2624660741127354  3.5148907262437259
 12.2870350316241286 12.3013241706555316  3.4664918569836840
  1.7069315530680766  7.1118518980741809 12.4395008372367126
  0.0466527296982141  1.7141164477015127 12.3659258703986090
 10.6195845434435761  3.4900836934058383  7.1434482654282920
  8.8714841074542079  1.7284269229966365  3.5053329596369647
  5.4048614502603698  1.7734650963872067  0.0505738612822627
  5.3699850796454145  5.1985200613913447 10.5217829347519221
  5.3610527839332409  1.8002262531448956 10.4845672639599208
 10.5999797203334278  7.0048468814973228  0.0100043645903873
  5.2951545040281678  8.9479178473074299  7.0985988444009758
 10.5389541342438431  1.6468348504255013  8.7959546015597656
 10.5868731119135902  3.5860340966627859  3.4788126784795494
  3.5612633175452917  3.4883147926185494  0.0169123677594511
  8.7132661482257010  1.7675415242844952  0.0263209651321998
 10.5154828170481078  5.2934063645719815 12.3407333962508119
  6.9838487521352599  3.5391646512875923  7.1169175660196160
  7.0580505400930145  5.3619870528604645  1.7548799855188679
  5.3592131755741192 10.5498794696139999  8.8571444179726004
 -0.0067037725612513  3.4842252701042713 10.6805757724842110
  8.7883847040807073  5.3316681566962361 10.5326635743962882
  7.0177330901752892 -0.0674225409284604 -0.0281618228922916
  3.5029915108397121 -0.0870881798597315  3.5933115955333510
  7.0665438923027164  7.1191631807506450 10.4920830546741115
 12.2987609293884965 -0.0871951180067771 12.3476960741393569
  1.7185815770878630  1.8516534763705841 10.5727838859600141
 12.3193836566011647  1.7055272976097156  7.0936271699469131
  8.8908561094790137 12.3543227480491407 -0.0938335444550506
  0.0453592044747205 12.3727330335293608  5.2494683964334037
 10.5085119602074677  5.4120316907772752  8.8817805670238705
  1.8144233295284857  5.2913770980614769 -0.1311163677092359
  1.7863224796472497  7.0643305073327802  5.3224755599395372
  5.4336370366852131 -0.0733002230674290  1.7190055449543504
 10.5960074107427129 -0.1163010271322982 -0.0485295970964569
  0.0263598519565046  7.0456309506885626 10.5838228242200465
  7.0353607232134410  5.2781558704394191  8.8846386223187608
  1.7417437551925807 10.7499296135362830  5.3021606213388930
  5.3652864141071088  8.8406117226609240 10.5431337681140693
  1.7394756738926136  8.9349151806390790 -0.1022563696439514
  8.8580771249995394  8.8126917050762117  3.4424781048553004
 12.2572222806615692  5.3684503984202392 -0.0684083329289694
  3.5715586223246856  8.8459157737550349  8.8481015204866242
  1.7009793922388803 12.4430488078658854  7.0716625427327413
  8.7716315989636158  7.0003187628682548  1.6643068999878041
  0.0123691598920575  8.8886945073136214 12.3779036361162920
  7.1109449726892731 -0.0021339409593618  7.1321709596786347
 10.6298541680531891 12.3390617935805835 12.3600294824194652
  8.8090677660357972  1.6261696611820906 10.5502579722059853
  7.1290443695815480  8.8875391150494139  8.8568855655293479
  1.7231546468332004 12.2402557132779251 -0.1131545178652671
  5.3820087553107667 12.3855714794633798 10.5661931344950517
 12.3492769609319755 10.7013673603913464  8.8504264764618146
 -0.0185682512339499  5.3354853700676372 12.3395025980466180
  1.7473429305018595  3.4903533793983521  8.8795633175666904
  8.8202859285433366  8.8570976541356643  7.0903301016085738
  0.0089565328717165  1.7480250581117318  8.8714889848047260
 -0.0029184748828136  8.8552851780465378  1.6374814016199726
  1.7382994233417346 10.6466709974931906  1.6567369196875872
 12.3337732864417884  5.2969531699112151 10.5808641336800839
 12.2921767969664089  5.2785786408912063  3.5615721083207035
  8.8328666419873514 12.3640459832600715  3.5190490263727563
 10.5566708804452780 10.6338643422584873 10.6362495705981885
  3.5463878116720617  3.4868472956029106  7.0829903309049049
  7.0484104276868624  1.7380197583316606  8.8011929944701563
 10.6056108725915301  8.9710514940452768  1.7479397473643499
  5.3201411952055233 -0.0560122324440980  5.3064253605991327
 12.3297507388187952 10.6075146771504283 12.3763720389005432
  1.7732721018047954 -0.0381851736067494 12.3890848587942930
  5.3097017247044036 10.5778608999113164 12.3405099258829853
 -0.0139272403946920 10.6318148367051659 10.6252258574024427
  1.7587484378289719  3.4868809493833632 12.3694045161849751
  7.1232542024042829 10.5862826179324063  7.0889083712022485
 12.3531422431434148  7.0764397252160052  1.6658815573939179
  0.0342921785170740 -0.0088913431140863 -0.0044746146645888
  7.0558176365403353 12.3602349211793374  1.7334596508520244
  5.3074440809873797  3.5254399052217442  1.7348711874926299
  8.8148019749256274  1.7090898962088852  7.0954719649332034
  5.3114654331686495  3.4940691363552219 12.3356466404289105
  8.8218761644484491  8.8483846093745431 10.6553422128392157
  8.7812890383349753 12.3824708064117441  7.0922909665641551
  7.0909506357667667 12.3643074083640432  8.8458502253545017
 -0.0153303366083630 12.3161550031137956  1.7084360659060485
  3.5197701183137284  8.8181426722722644 12.3775140926596183
  5.3056177660650627  1.7405932068341516  7.0884569359202798
 12.3425044407348601  1.6661605214112516 -0.1011073736198247
  7.0935616407966506  3.4968389629078973 10.5541407441872526
  0.0029182886306254 -0.0179449229821768  7.0696794315369136
  5.3076208375576330  5.3376668550542288  3.4820960382044115
 12.3247758391499698 -0.0658089025438368  5.2828592333480753
 10.5859321012559633 10.6209191364789781 -0.0175475768583295
  0.0239457474762830 12.2664409969503989 12.3194269806490091
  3.5689673313693611  3.4746786200443216 10.5624356650700655
  5.2586947977300138  7.0498280954872525  1.7163987655285751
  7.0703660668547847  1.7218141760439347  1.7788629757137677
  7.0394278132538215 12.4192821753214293 12.3358256009652738
 12.3124726460751042  8.8622059816873904 -0.0188272561059397
 12.3233878886648771  3.5779993744381877 12.3093707569183959
 12.2947982878234754 12.2962691156094124  0.0233083933449376
 -0.0301885236654793 10.5909515003939187 -0.0251304159425159
 10.6088487780529874  5.2759124077871187  1.7169914796474208
  7.1016806600475038  7.0876642825010077  3.5175492402391364
  8.7982986975214885  7.0797247588778047  8.8863896045718835
  5.3578225821152037  0.0049178548614937  8.8638542539014242
 12.3024688712499426 -0.0804019821627854  1.7162244951471004
 10.5474691371053968  7.0494693800629866 10.6161682935496984
  0.0176200524102617  5.2891764644326358  8.8981590306724776
 10.5477727995191302 12.3531192491539432  5.2823549001057408
  8.8737875959958572  5.2645099011721568  7.1068279392126659
  3.5328365191236331 12.3487798628281844  5.2777426574395454
  5.3123669079851279 10.6278113496558007  1.7414804996911906
  3.5602253949979494 12.3344125360277026 12.3324911476336201
  8.7890877798045395 10.6138398265368057  8.8545486439130769
  5.3274487090125167  3.4900324897333257  8.8208183114278871
  7.0513571096040639  7.0635895042013512 -0.0147147725185355
 12.3079660109365392  7.0529868461756573  8.8814204607733878
  5.3376690464391316 -0.0029338370844586 12.2925309757715677
  3.5571694704757029  1.7561906731986443  5.3054890898982556
  1.7866946765577960  8.8436576381382004  7.1129373243522576
  3.5550150288754323  1.7704580829580852  8.8777595349452323
  1.7453013470295122 -0.0539971543584119  8.8584913668001661
  7.0809656852366798  3.5201887105997094  0.0620763178623412
  7.1075152444769572 12.3741737129644491  5.3148749308794780
 10.5369003808251982 -0.0329862287614900  7.0682822540382926
  5.3127742519171752 12.3432310931825260 -0.0634824008122850
  3.5696984039077786 12.3400145205665996  8.8783612217980981
  3.5616512917062875 10.6433073983798838  3.5435051910673296
  8.8522653181943749 10.6468334208396271  1.6889870301371317
  5.2838344656381873  7.0296570296460201  8.8995351999951353
 -0.0116778213422432 10.6589633442608260  3.4688020438243354
 12.2988701620358043  3.5308905315997499  1.7577726903161748
  1.7453354512143242 10.5788873679631426 12.3290690657334423
  1.7728897318223131 12.3302634032725305 10.6420969325538355
 12.2939957950046299  8.8010491740328511  7.0438594644891488
 10.5817340145650078 12.3287649432800883  1.7269428111365750
 12.2565812631682345  3.5453743643738020  5.3243447803588468
  8.8667409858545714 10.6178111907233905 12.3709723492411179
  8.8100767281234305 -0.0080010970955010 12.4142174875351525
  6.1210821182836401  7.9437352193173671  7.9777732287375480
  9.7515977226306276  8.0313309970304338  0.9276005733072675
 13.2213126712182980  7.9686136375076773  4.4481752546658457
 13.3087399920810263 13.1124585148295587 13.2946730309434162
