Fe  H 
 1.0000000000000000
    14.2840000000000007    0.0000000000000000    0.0000000000000000
     0.0000000000000000   14.2840000000000007    0.0000000000000000
     0.0000000000000000    0.0000000000000000   14.2840000000000007
 Fe  H  
 256   4
Cartesian
 -0.0004215368336262  0.0006108813353255 -0.0057190451188901
  0.0020157251378055  1.7957010638612989  1.7792980903314144
  1.8130622793497473 -0.0184742543954478  1.7785432974133741
  1.7830094885449879  1.7830940033580072  0.0005528870066324
  0.0032694098104875 -0.0060074125419193  3.5688177682515372
  0.0603923034419292  1.7855853307550666  5.3356186035666004
  1.7811901057169728  0.0142506248738201  5.3674836956000860
  1.7998679352007805  1.7740211166743816  3.5792387582311576
  0.0382525536858736 -0.0087249675779191  7.1445853093516254
  0.0098157008640641  1.7753111021706338  8.9193056422478065
  1.7885753982908543 -0.0111639678505683  8.9386634761100936
  1.7688658034263924  1.7960490452031475  7.1347416575837252
  0.0241005917514695 -0.0271320183661698 10.7085891786392864
  0.0076590026213271  1.7817553603157112 12.5257094976239731
  1.8000630678917160  0.0021088182844760 12.4915446394526413
  1.8125865571053552  1.7677719603243969 10.7072341682521230
  0.0408480406554740  3.5640748502426471  0.0093309438831500
  0.0139170093120702  5.3707020535079497  1.7655859013522919
  1.7916631856674177  3.5883220928630091  1.7697552981375484
  1.7765057308472636  5.3420029120895309 -0.0089623970752938
  0.0044648850837861  3.5621203474704983  3.5752470620580947
  0.0054262956700538  5.3637147047646350  5.3634046703127467
  1.7786419559612618  3.5726505014652403  5.3589297840346806
  1.8073026204249114  5.3762624926271050  3.5622394381555260
  0.0473869153642359  3.5897910593813149  7.1533285470881740
 -0.0044675160361300  5.3651014897520550  8.9258973536188435
  1.8150699164004824  3.5754562258140368  8.9222454144506109
  1.7958184454054698  5.3548415283904305  7.1536829437167313
  0.0011095723863510  3.5867790816854965 10.7317152189688656
  0.0388613444361273  5.3661865103381459 12.4856723802518275
  1.7719838265708954  3.5748918921666442 12.4918082057345874
  1.7964544965087859  5.3565942827484792 10.7269484672245188
 -0.0014211680369325  7.1408937324170774 -0.0075234698462826
  0.0142714967552103  8.9398084898720054  1.8017599611161605
  1.7938936906543606  7.1629527709591159  1.8025606537962460
  1.8180260611976364  8.9255126118321702 -0.0031319472226334
  0.0264919009915330  7.1614702008874342  3.5655935624064821
 -0.0081838802867901  8.9215324239217679  5.3526662280272834
  1.8049381997666216  7.1474485772374248  5.3449073117192114
  1.7750802770080236  8.9223441660781937  3.5695785040761239
 -0.0125166770151101  7.1500514098460535  7.1430945045384213
  0.0174617323509807  8.9432019441473134  8.9239723715275101
  1.8002823444319880  7.1576207628091648  8.9264259621737505
  1.8001062794973435  8.9247832024872800  7.1423282676810649
  0.0103675606948385  7.1476600203068781 10.7303965360870706
  0.0043283227190869  8.9240894063115324 12.4946372667530561
  1.7812147858419005  7.1346014417931896 12.5088106969252113
  1.7759942566250204  8.9386071818285693 10.6983657629502353
 -0.0014331516556325 10.7244689668230553  0.0078263685337453
  0.0167762709377303 12.4850837221886923  1.7654839384964021
  1.7731496534940991 10.7162106445820537  1.7769141598154030
  1.7932812825567408 12.4989116188713520  0.0113955012391915
  0.0212372945040506 10.7017378503321758  3.5593262187170907
  0.0100114477489600 12.4896808642434323  5.3547689863549008
  1.8104282411686925 10.7184969013244906  5.3465502918001571
  1.8020485825841561 12.4793714049813005  3.5612261638331231
 -0.0083808884361062 10.7012027830378447  7.1501049901488294
  0.0038466076513766 12.4981927177317242  8.9300874901928395
  1.8001169875322143 10.7019637636473615  8.9270092904350982
  1.8119081600960250 12.5012322766846982  7.1454779545356182
 -0.0055613376891514 10.7024051491837060 10.7238210872854243
 -0.0130153819848944 12.4891012151762997 12.4879720476441012
  1.8017747326085150 10.7109723249362094 12.4942180568914889
  1.8012138999580463 12.4995849854108183 10.7274852517175638
  3.5608368764003369 -0.0073377394811937  0.0043338448007734
  3.5717579217042834  1.7825368292825090  1.7804099066770929
  5.3587924541773999 -0.0011814276713647  1.7765239274360189
  5.3497952830161850  1.7833244797857823  0.0125486613746629
  3.5638508970951368  0.0028279548334467  3.5587222462959427
  3.5850812954936480  1.7822314616032549  5.3452104985201396
  5.3576838053818436 -0.0092397607456811  5.3639470605979334
  5.3447659510358969  1.8079446679918576  3.5649699473427123
  3.5960887343415884 -0.0107157394644664  7.1378712469114598
  3.5717555794605689  1.7934962560883301  8.9375533744988314
  5.3587209168256340  0.0057058617487956  8.9247751629506613
  5.3478722955578881  1.7697234669504034  7.1501974986648014
  3.5684163985361081  0.0004771020857278 10.7269192219188803
  3.5772738686214178  1.7884649069439207 12.4887776538980404
  5.3610473734529522 -0.0168984809215086 12.4966832525159681
  5.3495926720093676  1.8047145998518634 10.7192938093391170
  3.5947758575511477  3.5743944737324793  0.0115798127984920
  3.5790726811635318  5.3520415243248207  1.7848157662013950
  5.3496523671691572  3.5556385769987182  1.7747053043247718
  5.3359119095140946  5.3645013878536343  0.0124354552689998
  3.5751297552915440  3.5707054482798948  3.5797074963192510
  3.5736032417238204  5.3533171342303270  5.3438931028232917
  5.3285708565996597  3.5764601701404541  5.3389512620242643
  5.3572226294279472  5.3740876817036254  3.5832478583179674
  3.5848530480918517  3.5868640609675095  7.1515695905685899
  3.5598140379400287  5.3668418280886101  8.9128198469721056
  5.3645224020363944  3.5690430119614631  8.9191175806326228
  5.3541876424124206  5.3513739040802379  7.1569140755029084
  3.5597905497782398  3.5562096172238076 10.7195920593678427
  3.5892778917430013  5.3715819725044058 12.4923739695385763
  5.3344951895032535  3.5709868793985775 12.4848759300161074
  5.3568152467034817  5.3731832194440727 10.7237032565405723
  3.5731678816072634  7.1532817036860017 -0.0025856414922243
  3.5826639371396047  8.9227913813228739  1.7637528750075664
  5.3520604045770677  7.1273130261150506  1.7899949372458219
  5.3565959731207489  8.9368698826614263 -0.0055610753414763
  3.5680440660072699  7.1292606301313919  3.5669581239381927
  3.5624582392582469  8.9310766247531781  5.3693221013821466
  5.3740621207708124  7.1447168337241065  5.3596313917958565
  5.3558874999389170  8.9359346729313724  3.5555503458597570
  3.5555725929334718  7.1553684020012076  7.1468086356160772
  3.5617251007674806  8.9235882054029734  8.9361721320718566
  5.3539802093130993  7.1282810911058547  8.9297451910896068
  5.3662518282635778  8.9220518411967884  7.1344084860329593
  3.5853858346513454  7.1313126244955782 10.7122112772037266
  3.5721921602822220  8.9385252326411528 12.5042581586442356
  5.3422408992510144  7.1468867054368408 12.4954453104007133
  5.3462625265207455  8.9331665752646323 10.7372119354263855
  3.5674917572726002 10.7002176312586155  0.0019472860269576
  3.5705786880509738 12.5088314186191436  1.7877616195540069
  5.3475662867392604 10.7000781544963512  1.7730274700228208
  5.3682414633716000 12.4983059733288577  0.0047133304172970
  3.5830878392882881 10.7206541849424752  3.5850365175220325
  3.5608526028412344 12.4887825953372769  5.3468543781428881
  5.3572842543198904 10.7050366049506653  5.3369507164601560
  5.3483547617650649 12.4970030291484377  3.5834519117147368
  3.5552903016254995 10.7124120502455860  7.1478189439444444
  3.5603189626077683 12.4847289068700960  8.9120079315326528
  5.3569273746383645 10.7121975581518463  8.9217444045117311
  5.3704123793660408 12.4981841899267110  7.1547629059649198
  3.5564622057621156 10.7068823547405305 10.7173660989713415
  3.5590332307087134 12.5042319992362660 12.4911965281274657
  5.3656255836550928 10.6982916445537644 12.4972978817884286
  5.3600090570313421 12.5042886418256121 10.7234635307230501
  7.1220170619735521  0.0079109942285058  0.0073666458148827
  7.1099979329829051  1.7728001328167911  1.7806092747531685
  8.9035652810615566 -0.0252860863021499  1.7823841401500713
  8.9194789922007622  1.7822516205332533 -0.0275717334817469
  7.1367837685244657 -0.0165590321081318  3.5734589223103983
  7.1504196270329983  1.8081329901216745  5.3502969089954071
  8.9035682969987544 -0.0219618908747852  5.2915861266885109
  8.9148165169345148  1.7756412694959294  3.5735948038030023
  7.0828457663029889 -0.0027345791722070  7.1438848342988672
  7.1104837741903051  1.8036704480657257  8.9431470192828701
  8.9042109853695202 -0.0046317041529470  9.0065042607563015
  8.8987322128513959  1.8478251786144191  7.1523266205435290
  7.1342072623092028 -0.0281010905127131 10.7120159898127589
  7.1432081037777824  1.7880760275679568 12.5095821536588137
  8.9321079197070929  0.0013298859716536 12.5169810717060290
  8.9292649807068081  1.7920896931023624 10.7132524709920371
  7.1558118408090809  3.5747862502706678  0.0072089778348382
  7.1349668394443029  5.3657006916005763  1.7634682346103174
  8.9221132703080634  3.5930254440422971  1.7663472135157099
  8.8870553667021603  5.3647832484997888  0.0123090122571240
  7.1297009707184369  3.5726228896941756  3.5760957530902027
  7.1337649573074247  5.3671762402095098  5.3358838761209313
  8.8753971832296052  3.5884527451546941  5.3401880868062372
  8.9264573011057156  5.3555882248318145  3.5726736119443663
  7.1398102593496100  3.5547976413522808  7.1543267660405903
  7.1203745932497853  5.3800008273919406  8.9322945454765055
  8.9265743677674934  3.5696385826185866  8.9275683447721814
  8.9317560465627057  5.3709006678429319  7.1308647042124278
  7.1179054199739413  3.5756330255752604 10.7365205219913840
  7.1454565144266073  5.3397281704541202 12.4982362061589694
  8.8875086435418709  3.5710497660696476 12.4943717851004994
  8.9181867326252888  5.3692852145678467 10.7352901797916473
  7.1382309965212336  7.1392861797834319 -0.0051129662407498
  7.1473121840326543  8.9384703510078776  1.8054240424868837
  8.9277532566714939  7.1573211134087904  1.7708734512291959
  8.9288034373756204  8.9171575611707183  0.0016111384002158
  7.1236165772896491  7.1513196682629907  3.5726757284144965
  7.1288917532782747  8.9155990447470312  5.3512264695602036
  8.9382680030386581  7.1525354985002325  5.3540670228229796
  8.9035073494796002  8.9342533660911911  3.5656226814133434
  7.1210403022103268  7.1456701327494807  7.1407262091174371
  7.1392248342774600  8.9185011190715873  8.9287278935054140
  8.8978163713161162  7.1637399543413549  8.9313210586949818
  8.9414848581315081  8.9093114763414185  7.1511233023538292
  7.1401752457416476  7.1496009145899091 10.6877845019744857
  7.1219964670344025  8.9316385182138625 12.5048515468069379
  8.9267209356408923  7.1406435410945877 12.5098606176360132
  8.9136985010317300  8.9390093922274314 10.6998723093804529
  7.1308210485026349 10.7193672895994290  0.0085173585142204
  7.1436927613537859 12.4957970875546636  1.7567951115084564
  8.9163688868147766 10.7073037732156209  1.7718745463906529
  8.9379522877907469 12.4805326133368482  0.0145976579597922
  7.1403306175570807 10.6917623408199844  3.5710814519646541
  7.0965737376847686 12.4717343116731794  5.3301086811356955
  8.9237825991099875 10.7195772846272579  5.3476766349774199
  8.9275562399171715 12.5002026354934870  3.5755409243160581
  7.1178274011241731 10.7181816362344318  7.1567676124375339
  7.1104697017130611 12.4711182928135429  8.9533857849357616
  8.9304368148031337 10.6986646175139981  8.9254985409852861
  8.9005493257359074 12.4103015371634413  7.1407585491070868
  7.1267702437532252 10.7024624418615275 10.7311438461254927
  7.1240481217879932 12.4977726359385723 12.4929249078246425
  8.9316917454435689 10.7211527657298458 12.4879902009792954
  8.9169617291065890 12.4987898613764923 10.7270971045002561
 10.7089162606326571 -0.0033140908987766 -0.0261076156703584
 10.7303277722108472  1.7898582972829336  1.7810900612849245
 12.4898168016931397  0.0036614965416075  1.7950174432753920
 12.5059434906485549  1.7500328615280711 -0.0047089003698104
 10.6993630569080267 -0.0241394121042026  3.5421099436272070
 10.6248928431256999  1.7904647480379463  5.2645351703844563
 12.5751414419100911 -0.0808423724212411  5.2857561275613714
 12.5194692232108640  1.7889834187600338  3.5198996614105060
 10.7016639713271680 -0.0826161706668240  7.2176586236179556
 10.7061386362798991  1.8051726523574014  8.9967143818344280
 12.5004588868150979 -0.0351278118526733  8.9509029026986315
 12.5866629065860014  1.7972178882975738  7.2261438585862043
 10.7167377795242587 -0.0006721808865397 10.7021186905290300
 10.7105560643893867  1.7533868992109960 12.5086123865088048
 12.5082947311869770  0.0018223161445520 12.5254724409884712
 12.4917247263376954  1.7945848897648957 10.7213327997087937
 10.6573262219449720  3.5182159137490756  0.0415564696483739
 10.7096423576821635  5.3711521687253070  1.7982856922503783
 12.5018041130237716  3.5627668154006287  1.7965714937761326
 12.5560110780383827  5.4103832433350645  0.0476221296022761
 10.7146441498265279  3.6014449571787077  3.5193751161927445
 10.7026913633544485  5.4009579658721396  5.3518388355818312
 12.5678975226679199  3.6523160251584419  5.2923772375199336
 12.4835796748851724  5.3620359837217340  3.5605801960418151
 10.6557779579897201  3.6613180410960333  7.2043712874431378
 10.7280036829146521  5.3610069584955928  8.9366721998342733
 12.5174006813947933  3.6003174616169802  8.9780144279727949
 12.5165243276836318  5.3986702586530173  7.1419871942044146
 10.7120275023553368  3.5732920946000553 10.7074511102506182
 10.6532928194809529  5.4134678460951884 12.4559361441835108
 12.5541376005106589  3.5156410461523984 12.4591101565746314
 12.5116798379703003  5.3781076956249487 10.6978531199449129
 10.7002395191945698  7.1820071707023221  0.0110439940221263
 10.7127376414436082  8.9325976902960136  1.7708739848311421
 12.5028222980442187  7.1392095764688639  1.7769775368226215
 12.4991198151558827  8.9157044281263911  0.0024801651865799
 10.7116776633309474  7.1398565537445124  3.5691006183200962
 10.7110529792085725  8.9222833224117348  5.3422953797690855
 12.5080693840051485  7.1577584998578452  5.3730930423829708
 12.4993924315404801  8.9422164826431185  3.5828465566344465
 10.7010297745199807  7.1553204594946651  7.1252450709766375
 10.6999146764718418  8.9299303029019068  8.9243985466074776
 12.4942147201649210  7.1409910461401385  8.9308462179158195
 12.5165009885961318  8.9232611195969032  7.1484043958952252
 10.7225994749796865  7.1417197074432197 10.7276946553179631
 10.7232616664612177  8.9163996082380397 12.4968536428597616
 12.5090436001365308  7.1799001822018402 12.4884607413087387
 12.4916742936576455  8.9359422501612702 10.7271078476584538
 10.7081720110902001 10.7270194229442808  0.0148101742504129
 10.7118845989187292 12.4950173992408740  1.7653658448725960
 12.5021884831220884 10.7099643519584049  1.7623553223484063
 12.5066073374352360 12.4768987943087577 -0.0007509664113717
 10.7262463890729549 10.6930846574581295  3.5829006242664039
 10.7079513669514608 12.4510656253515215  5.3344060062927747
 12.4994512657876840 10.6973982472201410  5.3393181552479261
 12.5048234412665558 12.4931206284686418  3.5640886218019370
 10.7008676282573312 10.7179499083885439  7.1569381261687228
 10.7307360851015048 12.4861445204760457  8.9354707546573824
 12.5165831991139065 10.6937852756512317  8.9167119970846720
 12.5147747111643017 12.4511204074892863  7.1611291013993483
 10.6975319886135605 10.7022739835067870 10.7383671483368204
 10.6966154184190074 12.4746120546612094 12.5027549999513781
 12.5090057965669228 10.7250325744849082 12.4818632380720924
 12.5239632563087397 12.4951042469778777 10.7265358759541289
  8.8763361338498079 -0.0133438073273049  7.1496302928030868
 11.6156982426247986  0.8314854782700951  6.2258583079746543
 11.6028142758222188  2.7599463904650228  6.2413248335133416
 11.6075304856336032  4.4686991469414465 13.3884049588084206
