Cu  H 
 1.0000000000000000
    10.3099279403999997    0.0000000000000000    0.0000000000000000
    -5.1549651590999996    8.9286588211000009    0.0000000000000000
     0.0000000000000000    0.0000000000000000   32.0000000000000000
 Cu  H  
 144   4
Selective dynamics
Cartesian
  0.0000000000000000  0.0000000000000000  0.0000000000000000   F   F   F
  0.0831975055040343 -0.0435096327149950  6.3202426410750929   T   T   T
 -0.0052500520878117  0.0125057422637898 12.6880068711001286   T   T   T
 -2.5774825799999999  4.4643294109999996  0.0000000000000000   F   F   F
 -2.6063267082361894  4.4920125662474613  6.3569645008604718   T   T   T
 -2.5716083098597164  4.4530568247264046 12.6843789011447026   T   T   T
  5.1549639699999998  0.0000000000000000  0.0000000000000000   F   F   F
  5.1449222816065756  0.0504668702879448  6.3768620015831425   T   T   T
  5.1565468412075584  0.0046585624269862 12.6745389415438030   T   T   T
  2.5774813910000001  4.4643294109999996  0.0000000000000000   F   F   F
  2.5883688363642769  4.4652923676532819  6.3313546307644373   T   T   T
  2.5797549289708850  4.4700185684900102 12.6860992845854401   T   T   T
 -0.0000003960000000  2.9762196959999998  2.1045053430000000   F   F   F
  0.0314303779721249  3.0105046145056358  8.5340653254989434   T   T   T
  0.0035752076343602  2.9778709043299236 14.7780019228702404   T   T   T
 -2.5774831290000000  7.4405493720000004  2.1045053430000000   F   F   F
 -2.5816176589830118  7.4484533759818135  8.4473957836068152   T   T   T
 -2.5005705590998475  7.4847458433373477 14.7942918117058397   T   T   T
  5.1549637280000002  2.9762196959999998  2.1045053430000000   F   F   F
  5.1395459414580715  2.9928757312207717  8.4680958884931403   T   T   T
  5.1457010575054749  2.9656464587662712 14.7855240667745917   T   T   T
  2.5774809940000001  7.4405493720000004  2.1045053430000000   F   F   F
  2.5735891020837234  7.4402224105172658  8.4811527608182420   T   T   T
  2.5613700225359661  7.4399418368766383 14.7853345006795589   T   T   T
  2.5774818640000001  1.4881098479999999  4.2090106850000000   F   F   F
  2.5825058716668128  1.5039547956611523 10.5647969377188691   T   T   T
  2.5816166436275805  1.4893016359892144 16.8549704079866167   T   T   T
 -0.0000007930000000  5.9524393910000004  4.2090106850000000   F   F   F
  0.0039148420408750  5.9512639531875458 10.5642932178004934   T   T   T
  0.0022005923874105  5.9558312393139206 16.8500063174763284   T   T   T
  7.7324461409999996  1.4881098479999999  4.2090106850000000   F   F   F
  7.7147496649056473  1.4986576878890316 10.6211140352236200   T   T   T
  7.7285716723426559  1.4864847994555448 16.8811582630696151   T   T   T
  5.1549634849999997  5.9524393910000004  4.2090106850000000   F   F   F
  5.1404477502121484  5.9530255662352189 10.5677298704681188   T   T   T
  5.1500242504436597  5.9495757387859030 16.8988435580639553   T   T   T
  3.8662227630000001  0.7440549240000000  2.1045053430000000   F   F   F
  3.8603470569549030  0.7565014571499773  8.4577857078573349   T   T   T
  3.8741099646882491  0.7562757134046116 14.7686113912342201   T   T   T
  1.2887402990000001  5.2083841350000002  2.1045053430000000   F   F   F
  1.3000471160944500  5.2156656706318607  8.4726279409819725   T   T   T
  1.2904741380838127  5.2091620495952098 14.7716987414435845   T   T   T
  9.0211864259999999  0.7440549240000000  2.1045053430000000   F   F   F
  9.0183248106330449  0.7650344524260244  8.6010588543846502   T   T   T
  9.0122815779431882  0.7532757206306053 14.7919727268777876   T   T   T
  6.4437039619999998  5.2083841350000002  2.1045053430000000   F   F   F
  6.4278567701723714  5.2218333243444599  8.4602214313472910   T   T   T
  6.4426272103867355  5.1222248266301289 14.8168701042654867   T   T   T
 -1.2887415650000000  3.7202744200000000  4.2090106850000000   F   F   F
 -1.2869468039542100  3.7255023016190654 10.6034049004968889   T   T   T
 -1.2875521127623302  3.7195797867581097 16.8582856651006132   T   T   T
 -3.8662239910000000  8.1846035649999997  4.2090106850000000   F   F   F
 -3.8671495755370890  8.1983750198063099 10.5564395659906491   T   T   T
 -3.8634576803490472  8.1906589425674099 16.8864460122250044   T   T   T
  3.8662223290000002  3.7202744200000000  4.2090106850000000   F   F   F
  3.8605439620013007  3.7327748320071432 10.5694590672847060   T   T   T
  3.8650833277762700  3.7165305178932626 16.8669503223619834   T   T   T
  1.2887399030000000  8.1846035649999997  4.2090106850000000   F   F   F
  1.2875838413621628  8.1922639427117705 10.5799583214691140   T   T   T
  1.2856621973221189  8.1859344488742494 16.8716956114693701   T   T   T
  1.2887405420000000  2.2321647050000002  0.0000000000000000   F   F   F
  1.3178954696912220  2.2522755727122417  6.3603710730704854   T   T   T
  1.2958815647506325  2.2395007451572972 12.6864945289246354   T   T   T
 -1.2887420380000001  6.6964941160000002  0.0000000000000000   F   F   F
 -1.3227423310035205  6.6830953411170579  6.3735635810892202   T   T   T
 -1.2715013958106056  6.6956545829269416 12.6543930964619094   T   T   T
  6.4437046650000003  2.2321647050000002  0.0000000000000000   F   F   F
  6.4115867324382601  2.2630665311904226  6.3619857475602242   T   T   T
  6.4358125884996200  2.2327509746168648 12.7011967479023262   T   T   T
  3.8662220860000001  6.6964941160000002  0.0000000000000000   F   F   F
  3.8740230846224883  6.6826434036507534  6.3288168995714003   T   T   T
  3.8490367618232142  6.6960027497634833 12.6843130733651979   T   T   T
  2.5774814350000002  2.9762196959999998  2.1045053430000000   F   F   F
  2.5862333183569013  2.9935670039382831  8.4641713864176840   T   T   T
  2.5794721138191847  2.9786773451398201 14.7725749502236336   T   T   T
 -0.0000012980000000  7.4405493720000004  2.1045053430000000   F   F   F
 -0.0030031574566082  7.4454090478549002  8.4711472937146581   T   T   T
  0.0129673845175580  7.4428604285047912 14.7658356778836257   T   T   T
  7.7324450980000003  2.9762196959999998  2.1045053430000000   F   F   F
  7.6941256815387646  3.0151295481650648  8.5372747814021608   T   T   T
  7.7357348876872045  2.9644125229635998 14.7912324715214947   T   T   T
  5.1549623650000003  7.4405493720000004  2.1045053430000000   F   F   F
  5.1588915430956162  7.4357754882753255  8.4668050382139981   T   T   T
  5.0774269597146517  7.4844164179161652 14.8199254669392033   T   T   T
 -0.0000003520000000  1.4881098479999999  4.2090106850000000   F   F   F
  0.0131680614655027  1.5029653075450053 10.6123964010877643   T   T   T
 -0.0005673395146818  1.4899060317404149 16.8619514107277908   T   T   T
 -2.5774830080000002  5.9524393910000004  4.2090106850000000   F   F   F
 -2.5719692641957015  5.9503800505971283 10.5525796951846580   T   T   T
 -2.5703141769429352  5.9516797028882884 16.8834819572513446   T   T   T
  5.1549635420000000  1.4881098479999999  4.2090106850000000   F   F   F
  5.1486754330125990  1.4990721897045258 10.5761414396921243   T   T   T
  5.1547015081271601  1.4857935158795372 16.8737025420877416   T   T   T
  2.5774808849999999  5.9524393910000004  4.2090106850000000   F   F   F
  2.5770396071794193  5.9554874023816078 10.5750990774186882   T   T   T
  2.5728173095708655  5.9539912891635529 16.8659948389701064   T   T   T
  2.5774818310000001  0.0000000000000000  0.0000000000000000   F   F   F
  2.5810455646304797  0.0162605218183572  6.3379494856200598   T   T   T
  2.5851297266844271  0.0184414769187189 12.6596833860175106   T   T   T
 -0.0000007480000000  4.4643294109999996  0.0000000000000000   F   F   F
  0.0247094416351390  4.4814162929075660  6.3673190843972511   T   T   T
  0.0061867454584256  4.4654737896880157 12.6843887621802747   T   T   T
  7.7324459550000002  0.0000000000000000  0.0000000000000000   F   F   F
  7.6705996739824105 -0.0298449160140317  6.3337528071150331   T   T   T
  7.7263718287036962  0.0006286832588070 12.7027202768464633   T   T   T
  5.1549633760000004  4.4643294109999996  0.0000000000000000   F   F   F
  5.1460761241586956  4.4713811010911133  6.3318965439112587   T   T   T
  5.1391821612877457  4.4569959189811650 12.6853351702431905   T   T   T
  1.2887409320000001  0.7440549240000000  2.1045053430000000   F   F   F
  1.3007972464852791  0.7591975707733544  8.4727241227604253   T   T   T
  1.2910640205721691  0.7591938841369525 14.7794277342184817   T   T   T
 -1.2887415320000000  5.2083841350000002  2.1045053430000000   F   F   F
 -1.2890463262862530  5.2069848377045922  8.4650790685716277   T   T   T
 -1.2746650902409740  5.2029191693343542 14.7740368226460674   T   T   T
  6.4437050559999998  0.7440549240000000  2.1045053430000000   F   F   F
  6.4296124194736732  0.7582561573844649  8.4858205399500104   T   T   T
  6.4405205642426271  0.7432467086700102 14.7894761671680808   T   T   T
  3.8662225910000001  5.2083841350000002  2.1045053430000000   F   F   F
  3.8621321223901997  5.2209923743341786  8.4516927204583041   T   T   T
  3.8523001297009345  5.2022872987089075 14.7917774350328610   T   T   T
  1.2887406509999999  3.7202744200000000  4.2090106850000000   F   F   F
  1.3050440781445836  3.7348848101145804 10.5978569834568095   T   T   T
  1.2902549082627339  3.7212846928722612 16.8546647190324457   T   T   T
 -1.2887417750000001  8.1846035649999997  4.2090106850000000   F   F   F
 -1.2906945534012253  8.1883088123500656 10.5598002944140781   T   T   T
 -1.2772250446870332  8.1913909179007067 16.8702456521161039   T   T   T
  6.4437049279999998  3.7202744200000000  4.2090106850000000   F   F   F
  6.4244646107965533  3.7359069773252891 10.6024746229656088   T   T   T
  6.4423038094225351  3.7068994337473304 16.8907742019503360   T   T   T
  3.8662225019999998  8.1846035649999997  4.2090106850000000   F   F   F
  3.8646501572512859  8.1799280530212197 10.5999061730189830   T   T   T
  3.8528206989237956  8.1904389606383372 16.8927400001458032   T   T   T
 -1.2887412899999999  2.2321647050000002  0.0000000000000000   F   F   F
 -1.2948157588232883  2.3459749696167411  6.5556447778879274   T   T   T
 -1.2879667756993414  2.2338076435233929 12.7043829288384096   T   T   T
 -3.8662238690000001  6.6964941160000002  0.0000000000000000   F   F   F
 -3.8701375338717185  6.6911521365375277  6.3295576429669405   T   T   T
 -3.8632946896546434  6.6980674063952330 12.5964832328556184   T   T   T
  3.8662226799999999  2.2321647050000002  0.0000000000000000   F   F   F
  3.8626910208702472  2.2501483580109354  6.3318043891550131   T   T   T
  3.8641154460777569  2.2387705354065019 12.6735310109874728   T   T   T
  1.2887401009999999  6.6964941160000002  0.0000000000000000   F   F   F
  1.3275685879702825  6.6735327935479116  6.3802656665148243   T   T   T
  1.2883363619208472  6.6959128647170738 12.6720855366429532   T   T   T
  9.0447560645648917  0.7029000510222494  6.9381239954331111   T   T   T
 -1.2890078019594617  2.2176053268818237  4.9183322774533327   T   T   T
 -3.8725077948009545  6.6969543844468236 14.2841127066022935   T   T   T
 -0.0146454839080156  7.4150971160783943  5.2899816689495909   T   T   T
