Cr Co Ni  H 
 1.0000000000000000
    14.1120004653999995    0.0000000000000000    0.0000000000000000
     0.0000000000000000   14.1120004653999995    0.0000000000000000
     0.0000000000000000    0.0000000000000000   14.1120004653999995
 Cr  Co  Ni  H  
  85  86  85   4
Cartesian
 10.6956996944277769  3.6161038341788587  7.1108593525682187
  8.8657450104147042  3.5276390361713181  5.2411871723546257
 10.7409385555867036  5.3855567794903729  5.3019062825001413
  0.0067538471424223  7.0998437213815286 -0.0466945866221713
  8.7774964517141658  5.3992155631523246  7.0699317661875796
 12.3499495215971571  1.7625956982127795  7.1418858565269812
  5.2570302421133412  1.7563820568544735  0.0074191536551770
  3.5684764008273242  3.5231057799915297 10.5753846791813384
  5.3068928032564955  8.7839358413217763 -0.0496664120692068
 10.6005377160853200  1.7407106650192699 12.2574559625488302
  6.9980953013164413  5.4250640844911482  8.8684398296217211
 10.6565069756323592  5.4249629302699480  8.8693022450719852
  8.8122384235374085 12.2879007189213265  3.5264889349143043
  6.9713611784262213  3.5596714538944090 10.6018877112728216
  8.7965691447971359 10.5032834942378628  1.6853214169594042
  8.8855984952682991  1.7730518966184248  7.1334121897844698
  3.4040441392585543  7.0680704605852380 -0.0704654250065537
  8.8887492897678442  5.4394934602827627  3.4951165830193345
  0.0288021856189691  1.7577519630872114  8.8817267501595012
 10.5489647857259161 10.5578868002921151  7.1283872708415963
  7.0255608249000687  7.1826709448160324  3.4900877404659920
  7.0995184124212818 -0.0914446080253637 -0.0238043679532363
  3.4484488110439977  1.7944082936474204  5.3509524428323632
  5.2073395949594765 -0.0891681537860739 12.3492750719303999
 10.6788491643020222  7.1719957198545572  7.0603224117363093
 10.7394504264734021  7.1170635972923000  3.4420649545945889
 12.3434506927719454 10.5792517413577745  5.3314436023846241
 -0.0091181352014666  5.2858881845876082 12.2661745794142920
  7.0046825423722279  0.0008313976289360 10.5597676464199548
 12.4058577735114302 12.2600306955979743  3.4940317962752490
 12.3594326811885722  1.8669308849524431 -0.0549363160547861
  5.2290666545021498  7.1658339417309929  5.3309581554883367
  7.0057149540526877  1.7646997988901632  5.2997743023842059
  5.2356514701027574  1.7364961089704065  3.4955203161235415
 12.3461633704405198 12.3104141278447141 10.5585678237543092
  3.4549698753733331  8.8556396498967640  1.7163229056242708
  8.8976470562060719  8.8303709115042999  3.5579202308855438
 10.5913552944941163 -0.1040112474208504 -0.0514649809582795
  5.2155257178105527  5.3593721562672982 -0.0197414215512664
  8.8707911211738573 -0.0505918917938886  8.8832539056280257
  7.0585565287310654  1.7631107723706383  1.7962096853867686
  3.5241710725883117 10.6176001147503900  3.5114909622619122
  7.0701995360331287  1.7974574109330357 12.3021779162796019
 12.3881914622431495 -0.1143133841918385  5.2924588264474126
  3.4534071516794840  3.5392965519742843  3.4908643716000456
  7.0289434448099373  5.3173546974725081  5.2827410593107276
  6.9870678392928252 10.5252108343955015  3.5825995429575537
  8.7710959784939178 -0.1339381743099161  5.2664920218573625
  8.8407540312072772  3.6261047739654293  1.7169935131233021
  3.5186289923556422 12.2632264511956972  8.8462471546671502
  8.7996165555302710  3.5161386438777735  8.8404276392188592
  3.5175268429015438  5.3430411868376657  8.8473779773402743
  5.2596669140123424  5.2853673349861214  3.4686554254030786
  1.6812620852102917  7.0052178044764215  5.3340095082566972
  6.9971984245752941  5.3797418639766281 12.3795571811111049
  3.4474025751858202  5.2682393020564495  5.3324482848935313
  0.0612005517588595 -0.1038254157642018  7.1606786756900931
  0.0044267978484319 -0.0601732575560146 -0.1203839974489097
  0.0344593807548747  1.8342545886325785 12.2836895077185098
  7.0715057888368111 12.2593161865058686 12.3049645824352485
  8.8283822023190801  5.4441263754680813 10.6219306595377798
  1.7016733922303255  8.8231875034365075  3.4980816146182434
  5.2774210324843409 12.4143128649485970  3.5588407616677378
  1.6824042929631402  1.7286907590152902  3.5119026749250426
  1.7096685837053591  3.5650699944884843  1.6821184808002483
 12.4667363885105331 -0.0362382904020742  1.7403534565052055
  7.0814957473056843 10.5307191935071458  7.0497182675202312
 10.6973681151762250  1.7692820283754773  5.1564334594712697
  7.0223470015482725 -0.0668992247445237  7.1367935609736808
  1.7323154257064131 -0.0142977347107230  1.6881023489674862
 10.6467104406643145  1.7239898245730125  1.8272753461896547
  5.2481883248649686  5.3188459717653478  7.0911045100480212
 -0.0176799057518459  8.8193889628887323  8.8626807885676175
  7.0238734350551315  5.3439117737110857  1.6663632590034467
  1.7228689129854373 12.3647953626563520  3.4850338204797109
  8.8588052306091143  1.7509963480426054 -0.0391871399841964
 10.6220321931798214 10.4799336328462385 10.5689301228265879
 10.7107425102093732  7.1209213423888009  0.0305958944049082
  0.0021898380226737  1.8236129784740327  5.3364359985371213
 10.6192000779788742 12.2566780255131000  1.6962791400286890
  1.7967433028564521 10.6559472593463465  5.3699322644844525
  5.2497300123883086 10.5767017661127678 12.3113278271546047
  0.0482609210110243 -0.0609205406141992 10.6372900207301218
  3.4365735924691343 -0.0004826492905028  7.1034051184648703
 10.6287386181989358  3.6101082411442800 10.5971522002370566
  1.7668256258050516  7.1243957559961926 12.2101242545101840
  5.2756971662067542 -0.0223625105316123  5.3812107497329622
  0.0383798444883430 10.5958258493442212 10.6385487159293284
  3.5049725883732181  1.7350245317119972  1.6849201169109882
  3.5113695025182450  7.1337875457219830 10.5961063144568222
  1.7851938136493364  8.8499215291697002  7.1569638290603770
 12.5451164218793103  7.1450975358866256  5.2988166693603107
  0.0526800098418938 12.2197777665433556 12.3755003969171398
  8.8520404599530753 -0.0790365715815997 12.2160439747616216
 12.4219325502682967 10.5245933343476867 12.3742846766489052
  5.1942378263756401  3.5143371420793184 12.3970930849522532
 12.5547459523285845  5.3211857502029760  7.1045997235850260
  3.5421142794809386  8.8096403468417357  5.3491511163065502
 10.5275129342442693 12.2634310957217991 12.3492180033704031
  0.0002448976100347 -0.0370205397870045  3.5350563948151894
 -0.0759355687682591  5.3267452862317466  1.7433068193554322
  1.7592677302028108  7.0552565753462950  8.8433633991641756
  7.0112620769271148  8.7786841272070646  8.8690147171021394
  6.9854362789588196 12.2358379496242975  8.8910174343124293
 10.6908012751428370  5.3839911377338652 12.3578005323414999
  1.6755351289679372 -0.0964573137673882  5.2994908347289433
  7.0742059648349622  3.5365565000645249 -0.0451221892635296
  5.2224769644499354  7.1067442009723667  1.7965004210353746
  3.4441996717592032  7.1691346533740443  7.1563661537197714
 10.7596318326410003  3.6298208320018803  3.5500348222360594
  1.8368917633859625  1.7899944745276273 -0.0711118505274448
  8.7867304437686311  8.7703698104335572 10.6045190066396380
 12.3484491627359176  5.2181987678958315  0.0055379626740447
  0.0356241446574839 10.5707162273273898 -0.0405765994609956
  8.8410757566430238  7.1451560974965824  1.6362911726022298
  3.4899727258048530  0.0227999862750095 10.5646548611623778
 -0.0455461376842217  8.8776300528848076  5.4117443003612662
  3.4597634202254377 10.5002289538929432 10.5994807840848573
  5.2775002472512798  1.8414816787535733  7.1094303699369883
 10.7046566060410147 -0.1655189942717198  7.1539967685887094
  8.8575380346885115 12.2305451322355179 10.5749360479642345
  5.2707634905608636 12.2874086199783097  7.0615032884105204
  0.0148154602790559 10.5476272362660168  3.4719572542073580
  0.0339787146122654 12.2909408057010694  5.3330548790818151
  8.7465467782081614 10.4923497014310048  8.9087221387502620
  5.2820910824631344  3.5420007903291046  5.3585278282054860
  5.3394595122057584 10.6256763446420912  1.6767805727177458
 12.4171841008901822 10.5096372284763095  1.6795744770170189
 -0.0473035636241835  5.2569923128775145  5.2871466802312597
  7.0663607778358948  3.5030223425759908  7.0656042385948759
  8.7677724657937173  7.1487885169498195  5.3632905595093927
  8.8555706721478860  7.1633969969260214 12.3820676271825043
  7.0258328589446526 12.3366998095032780  1.6822847639115532
  0.0409065985530146  8.8745536582665512  1.7272124756223215
  3.4462517968940234  5.3442632523048550 12.2452110429741658
  1.8101011440197512 12.2378549107343897 -0.0880902696373554
  3.4844117338030434  7.0604906531193157  3.4822148864981419
  1.8263541062649711  3.5459299771811170 12.3591151419248337
  8.7741157083631141  8.8071751886827698 -0.0687580276808187
  1.8688285299117480  1.7641474170168450 10.6035015523279004
  8.7787210294359106  7.2527828789639539  8.8521498089179982
  0.0319918431152985  8.8588574264443452 12.2669464014402756
 10.6058820714557367  8.8159794093696782 12.3507920391793604
 10.6079596833633385  3.6665221297320012 -0.0950871298831943
  8.8285831545699995  1.7855988029516652 10.5611108299334013
 10.6725681665074834  1.7381012257656863  8.9364132543195218
  3.4329803283795339  8.8157322968836560 12.2704989222686276
  3.4677306172542717  3.5745362788016437 -0.0584230904710765
  8.8890930057383812  5.3554354253746022 -0.0805192634912089
  5.2442815836793946  0.0587973489622881  8.8536955475549348
  3.4516911576691953  1.7451869541325302 12.3642428347315789
 -0.0001526788460246 10.6679058127655733  7.1317465855628237
  3.5518001497537153 12.3001750567797377  1.6257139858071303
  5.1882504924918891 10.5042845833392686  5.3734542984038072
  3.4538270193256886  5.3710007018861798  1.7731086897827990
  8.8267384176413053 10.4703797054724106 12.3633992708452922
 12.4738156304019778  8.8873665778991313  3.4813359477641086
  1.6487894738957112  5.2622479922958094  7.1413818858489249
  8.8720233543001381  3.6199310659480108 12.3998646709818203
 -0.0636600681749033  7.0549070248761225  3.4902805448126411
  5.2991037811900661  3.4524904308301285  8.7714708231624225
  1.6777424718332323  6.9654921535962684  1.8010156896422307
  5.2181409723165419  8.8594499667305140  3.4907616283009570
  1.7015803406125689  8.8931731465273884 -0.0752578591589885
  1.7672062740231809 12.2568366471076757 10.6547435856093049
 12.3623491432469574  1.7264559497104581 10.5719904591610767
 12.3295276284141888 -0.0892219343279861 12.3328863913130906
  7.0986062233315002  8.8050695311172067 12.2931447224561801
 10.6190583570894965 10.5081948616156531 -0.1247232714856611
 10.6186726346855949 -0.0495930637796230  3.4771046214526740
  1.7188191095030294  3.5509386427214129  8.7977017890728035
 10.6286184243640420  8.7770329042498112  5.2835249370064261
 -0.0009378495706001 12.2579713280871729  1.6772053329605889
  5.2159859914127509  3.5527644889920103  1.6908786345206237
 10.5747984878705648 12.2985125406956080  8.8636101057740486
  7.0035799089747623  8.8122980638518449  1.7280253547784930
  0.0261951991026701  7.0810665197442919 10.5843932321834817
  1.7449685288301604 10.6056173512487621  1.7051017801166315
  7.0268797669045284  7.1439306536253575  7.0693616796340324
  1.6864071131295288  3.5921783461777985  5.3343511195358868
  1.7481778149537479 12.3027246652653854  7.1083103938427623
  5.2612353093144408  8.8175951841967048 10.5909750338777808
  3.5334601834427093 10.5548097644873859  7.0914879050704664
 10.5997418291149259 -0.0354104312780927 10.6300491627767126
 12.4504136129891556  7.1216383899476519  1.7487441835803070
  8.8149122284634576  8.7918401498284311  7.0586482527822989
 12.4531542071314956  1.7344958524144001  3.5071065967606478
  1.7849076203985239 -0.0341706238671320  8.9097904103721159
 12.3691529689305160  5.3632589238616939 10.5793096332309826
  8.8347293858887443 12.2789972760982060 -0.0534761087534446
 12.3307218382561938  3.5499452489914622  1.7557484025765684
  5.2447668522167890  7.1315057855167447  8.8408725041672636
  5.2667802347460766 12.3039653867154986 -0.0138525914208344
  7.0240282071093336  3.5725109110222166  3.5158051537150641
 10.6563085971789278  5.3090912461229163  1.7350827226248038
 12.4002076253116211  3.5624729508678445  5.3212974182139918
 12.4343209041662988  8.8759219160575835 -0.0469430291070881
  7.0605249420523144 10.5638463892466152 -0.0342394877726681
 12.3857789468427377  7.1129279078617458 12.3065026691157211
 12.3968263530777545  7.0840511205682075  8.8621025210819315
  7.0313839014832684  8.8206219341962999  5.3111038395334980
 12.4255283941961654  5.3237856722535888  3.5104211026499277
  1.7761359912109613 10.5311420945757561 12.3172510829383040
  6.9927322214822354 12.3150020554375033  5.3340737038630150
  3.4822287927237032 -0.0479160708115880 -0.0292224755015751
  3.4942012010656156 -0.0021730635606799  3.5399789449794947
 12.3689592068533667 12.2610088788377638 -0.0874224071478791
  5.2371200337854216  1.7434644092179898 10.5982857746324424
 12.3896066395691022 10.5682735270196737  8.8270520753369031
  7.0275894652818192  1.8042806809111847  8.8155639091396854
 -0.0259038014755466  3.5591207178372879  3.5510901775856158
  7.0573249869134287 10.5112405591054472 10.5737211341435593
  7.0332736801464364 -0.0442975749330125  3.4917640519724049
  0.0165554442486835  5.3191383391546445  8.8743330506067561
 10.6702494449811578  8.8941529140157289  1.7120330854148400
  3.5028684698029684 10.5544776885124598 -0.0382593365727243
 12.3846777104656258  8.8173315908078269 10.6272779842379101
  3.4963759020507035  8.8359387195433854  8.8624091134808989
  1.7559263467658752  5.3113394456562526 10.5506132493579301
  5.2812725790302109 10.5234539832082312  8.8671238440423643
  5.2256995728789883  7.1193219298932133 12.2914228908398577
 12.3359752878283491 -0.0345246981981809  8.8646336110736250
 -0.0144107579449025  3.5592227898622952  7.1106047057372619
 10.6162832861939478  8.7874766001900433  8.8577821919014905
  1.8287782423172489 -0.0428131512173012 12.3377638312070417
  8.8589120003541684 10.5815847923348283  5.2883620669593858
  1.7019809176649308  5.3241200360556409  3.5244114721488198
  1.7575891114631674  8.8292825539215478 10.5645063266281323
  7.0596368461765175  7.1182761419231326 -0.0208710178741971
  0.0268057281295142  7.0522211256533200  7.1113618995803032
 12.4016753527338306  8.8308697615497760  7.0872099660188583
 -0.0040415585848547  3.5612768268780068 -0.0587248381690655
  3.4899297612960556 12.3028816984762930 12.2880894169870487
 10.6208040570224185  7.1423370261536778 10.6311653728419149
  3.4914923201266883  1.7751183622498807  8.8155261487901360
  7.0121685516761660  7.1343295921007055 10.6143107824550107
 12.3973678632316062  3.5691842637753002  8.8777828902704439
  5.2574896628140566 12.3080075050243547 10.5435531957230211
  0.0568222157560601 12.2887283017294013  8.8842962162903358
  5.2332199046699976 -0.0445648340379216  1.7033208334007741
  5.2369909490200879  8.8201008698252501  7.1139350669346779
  1.7203347476769077  1.7911679863532426  7.0925880467985607
  8.8393430580179189 -0.0608352089594758  1.7727749925986687
  8.8202244677751462 12.3166529370217699  7.1178844507227437
  8.7594159538817387  1.6662366999814904  3.5833147317642045
  3.5314459738681521 12.3738345340943017  5.3482406299017509
  1.7482233932356082 10.5675476819985157  8.8472908376949952
 12.3882108415323327 12.3143545473607112  7.1340389750937181
  3.4756461756125852  3.5304568561585610  7.1049366702707628
 10.6408306413332330 10.5271959782944204  3.5193813959683697
 -0.0203822832801565  1.7417280140231555  1.6880267769760009
 12.3567961589920152  3.5583987265039774 12.2738325005168711
  0.0352346061002169  3.5328635847903023 10.5471112345371267
  1.7625304044397707  5.3058561148448344 -0.0521436369525770
  5.2579364536037172  5.3631326934010897 10.6116162051254452
 10.5837894377096706 12.3438499802076009  5.2849040780616736
  9.8473842350639078  0.7482654388118407  6.2200740712368239
  9.6655699926998437  2.6708237543854527  2.9122085321154123
  1.7808260940864635  8.8357168293680495  5.4017607830939145
 -0.1604735256011993  3.3673872548511619  1.9462511738413331
