Al  H 
 1.0000000000000000
    11.4212923049999997    0.0000000000000000    0.0000000000000000
    -5.7106474695999996    9.8911285198000005    0.0000000000000000
     0.0000000000000000    0.0000000000000000   32.0000000000000000
 Al  H  
 144   4
Selective dynamics
Cartesian
  0.0000000000000000  0.0000000000000000  0.0000000000000000   F   F   F
 -0.0004161192070193 -0.0030048293205356  6.9979279808164003   T   T   T
  0.0307756192318765  0.0252792470750997 13.9560113774102472   T   T   T
 -2.8553237349999998  4.9455642600000003  0.0000000000000000   F   F   F
 -2.8585188762838305  4.9457798083690294  6.9806928449684360   T   T   T
 -2.8167401686229252  4.9494045356088225 14.0004603012684274   T   T   T
  5.7106461519999998  0.0000000000000000  0.0000000000000000   F   F   F
  5.7077955239299625  0.0022142140323134  6.9800629610531182   T   T   T
  5.7022400178330628 -0.0222785140739661 13.9996662711565190   T   T   T
  2.8553224180000001  4.9455642600000003  0.0000000000000000   F   F   F
  2.8586529217012258  4.9439540269076474  6.9842259874751758   T   T   T
  2.8060999567833758  4.9395287371695797 14.0057223431600555   T   T   T
 -0.0000004390000000  3.2970429380000001  2.3313617880000002   F   F   F
  0.0012296247334972  3.3000329023708117  9.3013483825028391   T   T   T
 -0.0414506800135311  3.2740233746463931 16.3101837289969822   T   T   T
 -2.8553243440000000  8.2426074929999995  2.3313617880000002   F   F   F
 -2.8538505792797735  8.2390176478506145  9.3144163780803382   T   T   T
 -2.8561042204647045  8.2423315251497282 16.3381607993924582   T   T   T
  5.7106458839999998  3.2970429380000001  2.3313617880000002   F   F   F
  5.7116892837867006  3.2986313540609267  9.1854477251919739   T   T   T
  5.7360888551420057  3.3078644438384823 16.2997112221569331   T   T   T
  2.8553219790000002  8.2426074929999995  2.3313617880000002   F   F   F
  2.8600824698123208  8.2380164715761293  9.3203649314612687   T   T   T
  2.8485236906241429  8.2433332200319516 16.3383287368640069   T   T   T
  2.8491111793777768  1.6445201562120224  4.6450892692471681   T   T   T
  2.8731643212399236  1.6590058523352751 11.6418442605918511   T   T   T
  2.8610324057103154  1.6628076361709345 18.6406170926997596   T   T   T
  0.0012355198850420  6.5950921945711407  4.6502608877545626   T   T   T
 -0.0009813768586990  6.5929011708874397 11.6552529573044197   T   T   T
  0.0069463339323939  6.5962510187790633 18.6884612538659489   T   T   T
  8.5726515524668070  1.6437939733230054  4.6457599908050158   T   T   T
  8.5490893482200825  1.6620071373691820 11.6194241453646541   T   T   T
  8.5585430227309907  1.6563398471297044 18.6796783409815710   T   T   T
  5.7102789246718002  6.6023594035156536  4.6458915599033617   T   T   T
  5.7157355372912093  6.5740913005410162 11.6581906373222264   T   T   T
  5.7186186647788997  6.5971024274577008 19.0248278412212777   T   T   T
  4.2829840370000003  0.8242607350000000  2.3313617880000002   F   F   F
  4.2908428743673310  0.8392452352401092  9.3166491044634103   T   T   T
  4.3066836076665655  0.8135713398867032 16.3077684000795387   T   T   T
  1.4276604289999999  5.7698247729999999  2.3313617880000002   F   F   F
  1.4310684214140585  5.7677060753820486  9.3151245813470158   T   T   T
  1.3915008987028359  5.8159766724767907 16.3280306192947080   T   T   T
  9.9936301889999992  0.8242607350000000  2.3313617880000002   F   F   F
  9.9914630945841267  0.8217227141904411  9.3215744538925946   T   T   T
  9.9724729341088292  0.8552232010231402 16.3217062383643459   T   T   T
  7.1383065820000002  5.7698247729999999  2.3313617880000002   F   F   F
  7.1302971706879523  5.7545157319428935  9.3268976123955500   T   T   T
  7.2027712554905623  5.7415186297504865 16.3089969636182488   T   T   T
 -1.4272875408763843  4.1207962572595607  4.6528011438638686   T   T   T
 -1.4010115658492830  4.1279416794108661 11.6451309492281112   T   T   T
 -1.4244311719721376  4.1105159243514331 18.6635526736818100   T   T   T
 -4.2841703562459035  9.0672507062524108  4.6599634902535136   T   T   T
 -4.2713057135685490  9.0704233050851659 11.6475056819943532   T   T   T
 -4.2740726511090301  9.0753464484800990 18.6677279562388243   T   T   T
  4.2790310245650502  4.1237920101607095  4.6364761025211330   T   T   T
  4.1937849535580245  4.1845851665308258 11.6975802870089574   T   T   T
  4.2805016234683331  4.1244744565805984 18.6277007847199236   T   T   T
  1.4287520044046980  9.0659522764863425  4.6544017367028161   T   T   T
  1.4276290911596181  9.0388692011455820 11.6279145609934211   T   T   T
  1.4244211278824923  9.0702545730260162 18.6870028545424667   T   T   T
  1.4276610390000000  2.4727821300000001  0.0000000000000000   F   F   F
  1.4316873182135477  2.4743956359379573  6.9896237162414101   T   T   T
  1.4283875274978366  2.4833904357829906 13.9813939144712798   T   T   T
 -1.4276626960000001  7.4183463900000000  0.0000000000000000   F   F   F
 -1.4287408842889151  7.4170135626265941  6.9797149932827134   T   T   T
 -1.4243531657847224  7.4145153268555921 14.0171194658617022   T   T   T
  7.1383073609999999  2.4727821300000001  0.0000000000000000   F   F   F
  7.1470351094312461  2.4695928809692713  6.9348753826964051   T   T   T
  7.1252935368080941  2.4815183735603639 13.9489739887313018   T   T   T
  4.2829836270000001  7.4183463900000000  0.0000000000000000   F   F   F
  4.2840044783415019  7.4153146797445153  6.9945821302872950   T   T   T
  4.2838111312878331  7.3782972390138370 13.9858517733610697   T   T   T
  2.8553221270000000  3.2970429380000001  2.3313617880000002   F   F   F
  2.8784634541436422  3.2993259507768458  9.3218163609361113   T   T   T
  2.8989587973040192  3.2388744148757214 16.2803894969199412   T   T   T
 -0.0000017780000000  8.2426074929999995  2.3313617880000002   F   F   F
 -0.0058719962233415  8.2430694256935997  9.3105431567032966   T   T   T
 -0.0083998106460979  8.2610147983738695 16.3446758202531299   T   T   T
  8.5659682789999998  3.2970429380000001  2.3313617880000002   F   F   F
  8.5461769030450743  3.3033219440665129  9.3136807573370817   T   T   T
  8.5590288009348789  3.2747355003940242 16.3014805711095399   T   T   T
  5.7106443740000001  8.2426074929999995  2.3313617880000002   F   F   F
  5.7119923998386124  8.2345451583693574  9.3331144058825188   T   T   T
  5.7365199087774918  8.2760730217865497 16.3359112599635345   T   T   T
  0.0002202071741484  1.6466787509789602  4.6602168738853349   T   T   T
  0.0102230699199315  1.6518122007573761 11.6276044100394227   T   T   T
  0.0049365582730031  1.6618029042956184 18.6674930057363113   T   T   T
 -2.8561612077816791  6.5949917250308969  4.6520337045479900   T   T   T
 -2.8393646298841828  6.6141103053231447 11.6703682933867974   T   T   T
 -2.8541580276519478  6.5894375109914591 18.6655297852259068   T   T   T
  5.7103091563285577  1.6439794251754487  4.6360255089335940   T   T   T
  5.7167012202327196  1.5400049950679635 11.6705668615583420   T   T   T
  5.7131740808557456  1.6530516169997909 18.6488962520539694   T   T   T
  2.8553797288765561  6.5953162325653807  4.6546096199356040   T   T   T
  2.8347856962921512  6.6081327878583096 11.6564399465206119   T   T   T
  2.8557343579291561  6.5819176079548045 18.6676290061068357   T   T   T
  2.8553229060000000  0.0000000000000000  0.0000000000000000   F   F   F
  2.8584318788452130 -0.0013875591701201  6.9891151598241228   T   T   T
  2.8617340907055415  0.0045780904873947 13.9900677458693341   T   T   T
 -0.0000008290000000  4.9455642600000003  0.0000000000000000   F   F   F
 -0.0015540788383639  4.9495142906383478  6.9816906606326077   T   T   T
  0.0033220234329383  4.9411170717999999 14.0045541058851200   T   T   T
  8.5659692290000002  0.0000000000000000  0.0000000000000000   F   F   F
  8.5661455173964089 -0.0017732265536207  6.9913625791885110   T   T   T
  8.5164118378708391  0.0253174701107343 13.9374267899276632   T   T   T
  5.7106454940000004  4.9455642600000003  0.0000000000000000   F   F   F
  5.7112008740378934  4.9572820780409668  6.9391382511737918   T   T   T
  5.7143698276534165  4.9378020102180242 13.9903174966257815   T   T   T
  1.4276614710000000  0.8242607350000000  2.3313617880000002   F   F   F
  1.4332037852216426  0.8220653314779893  9.3140323606007840   T   T   T
  1.4209215353846283  0.8569725398196626 16.3139073820813891   T   T   T
 -1.4276621359999999  5.7698247729999999  2.3313617880000002   F   F   F
 -1.4341930938630814  5.7710301678684024  9.3221335152943254   T   T   T
 -1.3937405080577008  5.7575657089131411 16.3408722903367334   T   T   T
  7.1383077940000002  0.8242607350000000  2.3313617880000002   F   F   F
  7.1277829304818221  0.8393816649641384  9.3055850061514782   T   T   T
  7.1504120658877595  0.8194414100774412 16.3182999068130137   T   T   T
  4.2829841860000002  5.7698247729999999  2.3313617880000002   F   F   F
  4.2935763559180824  5.7528453956559282  9.3285047080347461   T   T   T
  4.1987136697073986  5.7350364264808178 16.2974597409375654   T   T   T
  1.4274894440462238  4.1210117863331739  4.6534809348759056   T   T   T
  1.4004213932152694  4.1298291392956035 11.6424681871175526   T   T   T
  1.4289847533656630  4.1224309669339601 19.0311400918807081   T   T   T
 -1.4285702278197034  9.0666446727664933  4.6519798691476053   T   T   T
 -1.4355670833486132  9.0369441932455477 11.6533298581047848   T   T   T
 -1.4285034827681229  9.0736414719670382 18.6750847813338012   T   T   T
  7.1419356200722417  4.1240130107396480  4.6357487667340092   T   T   T
  7.2239879890989291  4.1749812937921247 11.6849514613157535   T   T   T
  7.1366884901444463  4.1283174967336267 18.6468777598514919   T   T   T
  4.2841877131535488  9.0668646179427679  4.6599684850843532   T   T   T
  4.2882174006682749  9.0643938041271035 11.6645630378730143   T   T   T
  4.2922424704568369  9.0698791770742417 18.6358154249123302   T   T   T
 -1.4276618670000001  2.4727821300000001  0.0000000000000000   F   F   F
 -1.4298908829594807  2.4721509482738551  6.9905627412669755   T   T   T
 -1.4336949979715705  2.4552596875826489 13.9625221608701811   T   T   T
 -4.2829856020000001  7.4183463900000000  0.0000000000000000   F   F   F
 -4.2835668388921162  7.4165022701277419  6.9936913150355524   T   T   T
 -4.2948589617226816  7.4215429567241760 14.0170198585576919   T   T   T
  4.2829842850000004  2.4727821300000001  0.0000000000000000   F   F   F
  4.2749957776327001  2.4679818144746770  6.9372630143545573   T   T   T
  4.3011934345919531  2.4717449418616573 13.9471523848379650   T   T   T
  1.4276605499999999  7.4183463900000000  0.0000000000000000   F   F   F
  1.4287187671729806  7.4193957528162278  6.9885938045156406   T   T   T
  1.4344695300389598  7.4334932867689982 13.9971672923787995   T   T   T
  5.6996824646561315  3.3003603680350166 11.0510020974966405   T   T   T
  1.4332881484852336  4.1084617470097777 17.2101324487395253   T   T   T
  5.7087478703252490  6.5471602439747869 17.2089554130696776   T   T   T
  4.2304113373151511  9.1058893559535754 14.9464576299526186   T   T   T
