Cu  H 
 1.0000000000000000
    15.4648923874000008    0.0000000000000000    0.0000000000000000
     0.0000000000000000   10.9353294373000001    0.0000000000000000
     0.0000000000000000    0.0000000000000000   32.0000000000000000
 Cu  H  
 216   4
Selective dynamics
Cartesian
  0.0000000000000000  0.0000000000000000  0.0000000000000000   F   F   F
  0.0012335829486813  0.0023632614651912  5.1531045248740863   T   T   T
  0.0004870345204093 -0.0078342429174496 10.3013389540737297   T   T   T
  0.0000000000000000  3.6451099210000000  0.0000000000000000   F   F   F
 -0.0008844416345791  3.6452090634433190  5.1562718254002062   T   T   T
 -0.0006216242215870  3.6381863730963864 10.3634944877532771   T   T   T
  0.0000000000000000  7.2902198420000000  0.0000000000000000   F   F   F
 -0.0003181720929417  7.2863061862434861  5.1472973704022760   T   T   T
 -0.0028429976661068  7.2828280123937859 10.3146476227670014   T   T   T
  5.1549642830000000  0.0000000000000000  0.0000000000000000   F   F   F
  5.1432309255551711 -0.0032709743185205  5.1426174153881963   T   T   T
  5.1470670267541259 -0.0072455409970379 10.3547824283317613   T   T   T
  5.1549642830000000  3.6451099210000000  0.0000000000000000   F   F   F
  5.1433200086645838  3.6573569145621989  5.1475077310368826   T   T   T
  5.1397532328322288  3.6508696133225773 10.3367597526518296   T   T   T
  5.1549642830000000  7.2902198420000000  0.0000000000000000   F   F   F
  5.1533687963630701  7.2852099326863069  5.1513198046647428   T   T   T
  5.1414654529356802  7.2679613634676041 10.3577195685048089   T   T   T
 10.3099285660000000  0.0000000000000000  0.0000000000000000   F   F   F
 10.3146101578563005 -0.0010268008429194  5.1531061627005945   T   T   T
 10.3193328683990231  0.0034043474072150 10.3259999783950036   T   T   T
 10.3099285660000000  3.6451099210000000  0.0000000000000000   F   F   F
 10.3190360432232993  3.6484724275814662  5.1466009332816700   T   T   T
 10.3305708978774167  3.6350494845889423 10.3100980371765178   T   T   T
 10.3099285660000000  7.2902198420000000  0.0000000000000000   F   F   F
 10.3132497038035158  7.2906846366812879  5.1527477830176176   T   T   T
 10.3241912011248882  7.2735420821450925 10.3694703657174578   T   T   T
  2.5774821409999999  0.0000000000000000  2.5774821409999999   F   F   F
  2.5519582919891217 -0.0008240883056393  7.7335165493163354   T   T   T
  2.5763365572567918 -0.0080863215784875 12.9177782882051382   T   T   T
  2.5774821409999999  3.6451099210000000  2.5774821409999999   F   F   F
  2.5679289027124508  3.6525960179039081  7.7407237735173142   T   T   T
  2.5728059805631527  3.6400075970172909 12.9289077264479442   T   T   T
  2.5774821409999999  7.2902198420000000  2.5774821409999999   F   F   F
  2.5638917803903758  7.2808419537797873  7.7332237497421739   T   T   T
  2.5899038612313285  7.3081925665742746 12.9214922697735393   T   T   T
  7.7324461940000004  0.0000000000000000  2.5774821409999999   F   F   F
  7.8114598926527536 -0.0356134488619724  7.7376491190466652   T   T   T
  7.7384011900466900  0.0040464648318125 12.9701500078408269   T   T   T
  7.7324461940000004  3.6451099210000000  2.5774821409999999   F   F   F
  7.7461539977222049  3.6654261007099542  7.7328637325385472   T   T   T
  7.7366523185723883  3.6274108483371403 12.9423666642350241   T   T   T
  7.7324461940000004  7.2902198420000000  2.5774821409999999   F   F   F
  7.7332558436982248  7.2385865100924045  7.6675540043092587   T   T   T
  7.7162498038002871  7.2725233990163449 13.0354443707635852   T   T   T
 12.8874100160000005  0.0000000000000000  2.5774821409999999   F   F   F
 12.8951407214316340 -0.0043443669819648  7.7315672168501672   T   T   T
 12.8918781246193781  0.0125633909195943 12.9117708476038224   T   T   T
 12.8874100160000005  3.6451099210000000  2.5774821409999999   F   F   F
 12.8902193050370144  3.6457658947798430  7.7335306183927397   T   T   T
 12.9065914270679389  3.6185578058689281 12.8984583331329414   T   T   T
 12.8874100160000005  7.2902198420000000  2.5774821409999999   F   F   F
 12.8941998996665994  7.2845756262784933  7.7351050848334282   T   T   T
 12.8749428531169166  7.2930438456950721 12.9449863221734525   T   T   T
  1.2887410710000000  1.8225549610000000  1.2887410710000000   F   F   F
  1.2782467065213192  1.8288549983262556  6.4465982460326492   T   T   T
  1.2934033029997549  1.8099727483148151 11.5911881030338400   T   T   T
  1.2887410710000000  5.4676647190000001  1.2887410710000000   F   F   F
  1.2835847004408831  5.4648698053925360  6.4482705645578982   T   T   T
  1.2814679714675148  5.4653750547412336 11.6142328148535707   T   T   T
  1.2887410710000000  9.1127743139999993  1.2887410710000000   F   F   F
  1.2827505956401020  9.1088679789280604  6.4391247256002009   T   T   T
  1.2940194318059770  9.1043482436575278 11.5737854325602871   T   T   T
  6.4437050080000002  1.8225549610000000  1.2887410710000000   F   F   F
  6.4422684834924526  1.8849127928888694  6.3793343893928549   T   T   T
  6.4399289950086827  1.8259317704035911 11.6146803385054991   T   T   T
  6.4437050080000002  5.4676647190000001  1.2887410710000000   F   F   F
  6.4367744820825568  5.4589995895659902  6.4416915459503503   T   T   T
  6.4385798155839389  5.4424610412993699 11.6488425972079828   T   T   T
  6.4437050080000002  9.1127743139999993  1.2887410710000000   F   F   F
  6.4337158145015332  9.1018429731795329  6.4265670491033653   T   T   T
  6.4455705076022944  9.1077864326391129 11.6535905289205068   T   T   T
 11.5986692910000002  1.8225549610000000  1.2887410710000000   F   F   F
 11.6105453945317247  1.8208097145344446  6.4432600334147745   T   T   T
 11.6033730305380516  1.8123583758866662 11.5799402104202542   T   T   T
 11.5986692910000002  5.4676647190000001  1.2887410710000000   F   F   F
 11.6046028848794123  5.4639633598499779  6.4426989128356897   T   T   T
 11.6037106649048365  5.4585485156513220 11.6085793935172319   T   T   T
 11.5986692910000002  9.1127743139999993  1.2887410710000000   F   F   F
 11.6080687100678670  9.1091531980213265  6.4472888221482867   T   T   T
 11.5902489658242107  9.1044514364932265 11.6069447716659919   T   T   T
  3.8662230970000002  1.8225549610000000  3.8662230970000002   F   F   F
  3.8394043123042882  1.8339006966222011  9.0396494079314262   T   T   T
  3.8456152407091615  1.8055484578421956 14.1008559013359260   T   T   T
  3.8662230970000002  5.4676647190000001  3.8662230970000002   F   F   F
  3.8562998005565294  5.4709634880073219  9.0353754489460538   T   T   T
  3.8460574473778828  5.4619505433127644 14.1032023615084245   T   T   T
  3.8662230970000002  9.1127743139999993  3.8662230970000002   F   F   F
  3.8478818408907536  9.0886328611083105  9.0370749805105017   T   T   T
  3.8666484049730943  9.1195857943726448 14.1024748132011410   T   T   T
  9.0211869189999998  1.8225549610000000  3.8662230970000002   F   F   F
  9.0415936986763477  1.8282034425995815  9.0305307140186688   T   T   T
  9.0281518989098650  1.8288663614302638 14.1044123299177020   T   T   T
  9.0211869189999998  5.4676647190000001  3.8662230970000002   F   F   F
  9.0372861837984644  5.4616636046584608  9.0296349145124868   T   T   T
  9.0293770486365261  5.4165119963568644 14.1216173159303100   T   T   T
  9.0211869189999998  9.1127743139999993  3.8662230970000002   F   F   F
  9.0850358863812488  9.1375713740954616  9.0480392258203164   T   T   T
  9.0251697602752294  9.1107107406254286 14.1392837803585216   T   T   T
 14.1761516620000005  1.8225549610000000  3.8662230970000002   F   F   F
 14.1777728372098490  1.8204822912114802  9.0246764608577035   T   T   T
 14.1865797036654637  1.7744286566853196 14.1277247621271815   T   T   T
 14.1761516620000005  5.4676647190000001  3.8662230970000002   F   F   F
 14.1755466986202379  5.4618178104248649  9.0341754109788894   T   T   T
 14.1809945005975866  5.5141655960240721 14.0962931583920437   T   T   T
 14.1761516620000005  9.1127743139999993  3.8662230970000002   F   F   F
 14.1765983153457462  9.1035242282432041  9.0170651763087655   T   T   T
 14.1743961237487657  9.1267348158203401 14.0852337397328071   T   T   T
  2.5774821409999999  0.0000000000000000  0.0000000000000000   F   F   F
  2.5749857592713341 -0.0007789850764906  5.1593393941686800   T   T   T
  2.5751081075666908 -0.0097046994174820 10.3091129257650351   T   T   T
  2.5774821409999999  3.6451099210000000  0.0000000000000000   F   F   F
  2.5698241685094763  3.6488998631488698  5.1525226615566089   T   T   T
  2.5650495529842772  3.6505252681550329 10.3282852873357154   T   T   T
  2.5774821409999999  7.2902198420000000  0.0000000000000000   F   F   F
  2.5745679219973350  7.2892327182784076  5.1508820724038458   T   T   T
  2.5673681838997746  7.2805523013587150 10.3209130210485043   T   T   T
  7.7324461940000004  0.0000000000000000  0.0000000000000000   F   F   F
  7.7399322436049696 -0.0034321245278670  5.1408727484532175   T   T   T
  7.7359947353709355  0.0052264434197164 10.3650347633820115   T   T   T
  7.7324461940000004  3.6451099210000000  0.0000000000000000   F   F   F
  7.7412304001497256  3.6541025195939398  5.1452046631404924   T   T   T
  7.7364006896515916  3.6491756773287083 10.3235458707677896   T   T   T
  7.7324461940000004  7.2902198420000000  0.0000000000000000   F   F   F
  7.7338924847492327  7.2863589814650664  5.1403037208838001   T   T   T
  7.7383939052741280  7.2221412048841174 10.4818594978759343   T   T   T
 12.8874100160000005  0.0000000000000000  0.0000000000000000   F   F   F
 12.8894782068548999 -0.0020585058650777  5.1514131594398123   T   T   T
 12.8875708588872353 -0.0120718022289048 10.3093986207815949   T   T   T
 12.8874100160000005  3.6451099210000000  0.0000000000000000   F   F   F
 12.8884816422580464  3.6446177026689841  5.1519138843272012   T   T   T
 12.8950206421244999  3.6428099018162112 10.3134455878720157   T   T   T
 12.8874100160000005  7.2902198420000000  0.0000000000000000   F   F   F
 12.8864196748423314  7.2889729207815162  5.1500614194942598   T   T   T
 12.8915909486531692  7.2783811223252863 10.3247066118548965   T   T   T
  0.0000000000000000  0.0000000000000000  2.5774821409999999   F   F   F
 -0.0030140045059419 -0.0027709862813835  7.7253411742479088   T   T   T
  0.0034025719633486 -0.0316390676913237 12.8806920132859215   T   T   T
  0.0000000000000000  3.6451099210000000  2.5774821409999999   F   F   F
 -0.0033396728505446  3.6486198451997267  7.7499016686769044   T   T   T
  0.0100888974814102  3.6395643586908646 13.0202378650552930   T   T   T
  0.0000000000000000  7.2902198420000000  2.5774821409999999   F   F   F
 -0.0030317654259090  7.2838442093001978  7.7309965784821379   T   T   T
 -0.0054583599705811  7.3121724099144005 12.9183000004840505   T   T   T
  5.1549642830000000  0.0000000000000000  2.5774821409999999   F   F   F
  5.0665460645386275 -0.0524836586306613  7.7464774547588613   T   T   T
  5.1536318232732956  0.0139675019930475 12.9439508289992862   T   T   T
  5.1549642830000000  3.6451099210000000  2.5774821409999999   F   F   F
  5.1350640531658929  3.6630589814819037  7.7406432901756146   T   T   T
  5.1260979050192246  3.6224777218987332 12.9327871446137852   T   T   T
  5.1549642830000000  7.2902198420000000  2.5774821409999999   F   F   F
  5.1349001522103483  7.2772220106457173  7.7354397568138804   T   T   T
  5.1631164347002141  7.2771737417519606 12.9770183276666558   T   T   T
 10.3099285660000000  0.0000000000000000  2.5774821409999999   F   F   F
 10.3340971083121307 -0.0008966888746345  7.7344145129409938   T   T   T
 10.3018739407414941  0.0072467763885236 12.9382499877160839   T   T   T
 10.3099285660000000  3.6451099210000000  2.5774821409999999   F   F   F
 10.3206343727648644  3.6418452595221487  7.7251533010022140   T   T   T
 10.3160592072150958  3.6226479905678657 12.9206248709442058   T   T   T
 10.3099285660000000  7.2902198420000000  2.5774821409999999   F   F   F
 10.3339251983882896  7.2790610388720394  7.7379756245649887   T   T   T
 10.3271629435580810  7.2718275158339667 13.0000393322125962   T   T   T
  1.2887410710000000  1.8225549610000000  3.8662230970000002   F   F   F
  1.2769301074042658  1.8259236937309347  9.0311819073085076   T   T   T
  1.2888436696193664  1.7694185945310152 14.1270056980977614   T   T   T
  1.2887410710000000  5.4676647190000001  3.8662230970000002   F   F   F
  1.2828230939370548  5.4630997965412398  9.0366312052335207   T   T   T
  1.2996874142239854  5.5310948398676958 14.1001193613539133   T   T   T
  1.2887410710000000  9.1127743139999993  3.8662230970000002   F   F   F
  1.2809708869913001  9.1039851231274262  9.0164191730751622   T   T   T
  1.2894821157278178  9.1245728505852899 14.0912111778591225   T   T   T
  6.4437050080000002  1.8225549610000000  3.8662230970000002   F   F   F
  6.4414845662526252  1.8749262327741156  9.1017514701113775   T   T   T
  6.4345111373480997  1.8355250550713635 14.1189969949471088   T   T   T
  6.4437050080000002  5.4676647190000001  3.8662230970000002   F   F   F
  6.4366805369241673  5.4538880571234865  9.0480482948014540   T   T   T
  6.4066763754138574  5.3807635484984040 14.1358046743569883   T   T   T
  6.4437050080000002  9.1127743139999993  3.8662230970000002   F   F   F
  6.3900066172048424  9.1256984330655975  9.0600897238608074   T   T   T
  6.4161650632578384  9.1615766066574089 14.1428427355063668   T   T   T
 11.5986692910000002  1.8225549610000000  3.8662230970000002   F   F   F
 11.6121523162452380  1.8192226822599908  9.0187706177782214   T   T   T
 11.6119587346998152  1.8232007352517086 14.0873341414535407   T   T   T
 11.5986692910000002  5.4676647190000001  3.8662230970000002   F   F   F
 11.6035992292205155  5.4634617978941931  9.0313852989726033   T   T   T
 11.6419668113247550  5.3846146827688628 14.0978459670493628   T   T   T
 11.5986692910000002  9.1127743139999993  3.8662230970000002   F   F   F
 11.6144879717480087  9.0968786104660122  9.0348949521486723   T   T   T
 11.6246755909220294  9.1686382904227504 14.1029247738929975   T   T   T
  3.8662230970000002  1.8225549610000000  1.2887410710000000   F   F   F
  3.8426154508417545  1.8343697960457603  6.4425166864604675   T   T   T
  3.8555100704526253  1.8162623318841797 11.5927668445788452   T   T   T
  3.8662230970000002  5.4676647190000001  1.2887410710000000   F   F   F
  3.8542218908103911  5.4699169168722861  6.4426441527513427   T   T   T
  3.8572440319656565  5.4646003955231492 11.6070856818924071   T   T   T
  3.8662230970000002  9.1127743139999993  1.2887410710000000   F   F   F
  3.8515776340519277  9.1003683866016374  6.4410887034654456   T   T   T
  3.8718070701717124  9.1008117731607072 11.6030266217933100   T   T   T
  9.0211869189999998  1.8225549610000000  1.2887410710000000   F   F   F
  9.0440942273585261  1.8340265985366997  6.4342412351512772   T   T   T
  9.0250548663405219  1.8264584238373702 11.5907867109326705   T   T   T
  9.0211869189999998  5.4676647190000001  1.2887410710000000   F   F   F
  9.0351043353040321  5.4641584658347542  6.4365137763177218   T   T   T
  9.0412507026293252  5.4233399794113115 11.6067101026659412   T   T   T
  9.0211869189999998  9.1127743139999993  1.2887410710000000   F   F   F
  9.0357342825858762  9.1060151527000244  6.4294412305020936   T   T   T
  9.0315952052172861  9.1200092614761097 11.6337032742738913   T   T   T
 14.1761516620000005  1.8225549610000000  1.2887410710000000   F   F   F
 14.1785287227878314  1.8248746407043641  6.4446066959269999   T   T   T
 14.1833758266141157  1.8073747865494250 11.5839049019743783   T   T   T
 14.1761516620000005  5.4676647190000001  1.2887410710000000   F   F   F
 14.1763595095563701  5.4650949776369631  6.4456347590706740   T   T   T
 14.1813087900403829  5.4612727338545790 11.6096368766241582   T   T   T
 14.1761516620000005  9.1127743139999993  1.2887410710000000   F   F   F
 14.1784042944196909  9.1093166677183941  6.4401164886497400   T   T   T
 14.1643920341909428  9.0999472530552179 11.5780084447073932   T   T   T
  7.7434847515282756  8.1215825109573441  9.0834021398527334   T   T   T
  9.0212959659248924  7.2546265029925303 14.2951502915109785   T   T   T
  6.4301885288483547  0.9093691452863462  7.7345741056594939   T   T   T
  0.0055423537510674  2.7673966828392995 14.6284341716592099   T   T   T
