Cr Co Ni  H 
 1.0000000000000000
    14.1120004653999995    0.0000000000000000    0.0000000000000000
     0.0000000000000000   14.1120004653999995    0.0000000000000000
     0.0000000000000000    0.0000000000000000   14.1120004653999995
 Cr  Co  Ni  H  
  86  85  85   4
Cartesian
  5.3561830038155147  1.7669079420011045 -0.0705844758261496
  3.4984459833213339 12.2825204136244608  1.7838289574868125
  3.4959350768626023  5.2666708719311046 12.3463596735583803
 -0.0230047611957351  3.4778235848164254 -0.0498121780344038
  1.7166884537462335  3.4469994828419495  1.7980518591446897
  5.2679891647039048  7.0997698868640162  8.8573652263468468
 12.3846832867487873  5.3106542499778255 10.5362062958826819
  8.8453456211094572  8.7455616128069824 10.5502733189123195
 10.6143998965723920 10.5981762792921899 -0.0218532129959659
  3.4987821486192887 -0.0252114246550739  7.1489147295338782
  7.1534503985777178 10.5110975488075873  3.5476065112329542
 10.5707366520600861  8.7811407300488931  1.8039652262930408
  3.4833410422620057  8.8435471173224265  8.7536384776045271
 -0.0890443230827920 10.5307767835997428 10.5706055016154448
  3.3816300409988744  7.1087549321851800  3.5457013467758385
 12.3504626008632403  6.9874907863388005  1.7530018228967716
  8.9216052427903811  1.7991895835800227  7.0741450892198730
  5.2461002872056337  1.7180104370758931 10.5569859298875439
 10.5138788502993741 10.5726548620433078  3.5656737406260905
 -0.0521778959294404  0.0496224978116813  7.1041587237696211
  7.1168626036225495  8.8181503932677927 12.3341699898840123
  5.2576268782762741 -0.0680294368720607 12.2811154654328565
 10.5863925527021010  3.6206052217533675  3.6170692936449953
 -0.0709956586257876 12.2917096309626466  8.8413185801934144
  3.5194680726013101  5.3415728345352758  1.7676977604497572
 12.3854468625176004  5.3104367440331037 -0.1359069296002776
 -0.0857048837038262  0.1131816187667828  0.0163631647546770
  1.7461977255081425  8.8411761793521890 10.5265093978671107
 10.5832578468446350  3.5253594593101676 -0.0214553526618557
  3.5209286773659092 10.6533333015225153 10.6070121301598981
 12.4042125146179441 10.6261215942244114  5.3201742696207743
  7.0885186918760272  1.6764830183089081  8.7933183769107046
  5.3012281832083943 10.5519203879272663  1.8196669127095368
  1.6982028802070985  5.3081161490710560  0.0035903297681172
  7.0976922846833315  1.7843849057882430  5.2297951273007452
  1.7614067943419207  1.8025134180110403  7.1067359858947983
  1.7831207406114191  0.0455462847649940  5.2494444261125031
  7.1077072673705430  7.0782553869900884  7.0337116170995042
 12.3286625132431986  1.7821345816949508  3.5891533397676914
 12.4079763079187071  8.8139794031408183  3.5762928350438323
  7.1121685300552331  1.7985640166271626  1.7873550126084046
  5.2730486755420749 10.5285620077203959  5.2603745042064256
  5.2690701949365790  8.8269583720611369 10.6493930016243716
 10.5568409046571379  1.7806042420426125  1.7941956971280668
  7.0402045445293737  3.5096911103832951 10.5395878881766087
  7.1250213657981041  5.3434149449634658  8.8611931073437162
  5.2997140630250010 10.5863415637196070  8.7818663984261693
  8.7324220771219423  5.2958537299671757  3.5920260357480860
  1.7518768232133006  0.0645232371591458  1.7750973490653872
 10.5992719525491736 12.3479663379726574 12.2995433499432139
  7.1077425500782816  3.5925227550419345  7.0732060057423904
  8.8810134787296828  8.7699650057366600  7.0670395378322315
  7.0686564482592553  5.3190891286525641 12.3719466486265279
 10.6127998514621211  0.0172884507174824 -0.0400666771866362
  1.7265095866930806 12.3017289215451662  7.0624583616007612
  3.5286595283084767  3.5760202192040307 10.5137934918976370
  3.4069194134864729  8.8525459182010664  1.7494665688754212
  5.3706678682467990  5.3877018575178042  3.5463529351188150
  0.0870068037763285  7.0530146928936031  3.5453094523355189
  5.2389628616070665  1.7981640331700623  7.1385714044882853
  8.8127135465990634  3.4900814078965183 12.3815921941932974
 -0.0768265747867009  0.0015440680941697 10.5659337705297016
  8.8260509225645638 10.5929459601248581  8.8691458622247339
  8.8462726159296228 -0.0451889922082858  1.8121656848922660
 10.6678358308738996 12.3199684914216139  1.7912520157029168
  3.5440830822539251  3.4586657102136202 -0.0342560862899789
  0.0249614703734919  5.3176008064176479  5.3709649460509334
  5.2989052429281767  3.5141587052685894  5.2271961751626987
  0.0242519236792959  7.1107205795523578  0.0034657085476695
  0.0007932900413272 -0.0304890339748382  3.5432733554728628
 10.6270830116580512 10.6371257172938929  7.0792124325012606
 12.3221867188282825 -0.0649616914280727  5.3301176144388442
  5.3069833504256225  8.8641354954407241 -0.0165870711841848
  5.2558942638367405  7.0069326370197853 12.3648009474149454
 12.3922316363544951  3.6345765770193137  1.7933960405910971
 10.6482782959720055  3.5092744598012504 10.5641943111281069
  8.8846986717629797 -0.0118992722425770  5.2198519348079646
  5.2270666759684214  5.3242452473736943  7.0269706399967129
  8.8506859498184465  8.7983081831550063 -0.0365185000742531
  5.2817755530740458  0.0392071753463523  5.2744108153597038
  3.4068738001160619  5.3467543441883256  5.2869018551443592
 -0.0395108099723114 12.2366395340771845  1.7539830058285995
  5.2935879486633102 12.3519031613451897  7.0506959551148007
 10.6422590895158500 -0.0598219907849710  7.1255675511464576
  8.8971483565536680  1.6726436335401549 10.5788623459891635
  3.5039411255358979 -0.0007426575552780 -0.0295034359936793
  1.7517959469851192 12.3437453387095690 10.6470682908087664
  7.1415440292173820 12.3146122965216627 12.3412674998304190
  3.4106182013826838  1.7794034807068999 12.2450071654138437
  5.3000045353511780  8.8216828355883194  6.9993228767812310
 -0.0176832770123981  3.5459822884772625  3.5924149256669176
  7.0235281257036402 -0.0963704940962423  3.4959293940996243
  7.1173585213961461 10.6863967306143017 -0.0191077325478344
  7.0924373391497282 12.3946765842126538  8.8059822261253693
  1.7070360561264333 10.5306961742143717  5.3077000050908882
  8.9478205357056684  3.6168267122249946  8.8093814373750163
  3.4451974340853933  7.0076885722185693 10.5637673142352835
  8.8826064003401282  1.8352630804469396  3.5730534190351766
  5.2787083667453487  7.1825504845056729  5.3108629584678670
 10.6060423339324164  6.9864179899286620  3.6086015173258996
  1.6888984762639128  7.0119972381180888  8.7669949177673825
  3.5420257499606964  0.0362907153478238  3.5003443242059924
  3.4815702745825274 12.2914221519607150  5.1852185632745451
  3.6053798592252631  1.7544566349819788  1.8336846409804797
 10.7044833354444329 10.4932328532429011 10.5481110861697474
  1.8096236093071862  0.0722947026291653 12.2012405070787473
  1.7410777880339849 12.2158558413840108 -0.0427867680843701
  5.3813286341632942  7.1057232337380238  1.7137767320581763
 -0.0506141370183634  1.7805484948507415  1.8163447283093090
  3.4594611137922473  7.0785890267385545  0.0131321469124182
 12.4119185449915950 12.3243324457416747 -0.0726391004953986
  7.0134038311315274 10.6223395610568119 10.6317523783583887
  8.8714006368568707 -0.1395035688932847  8.8426609829493081
  1.7792643398348562 -0.0228429402315617  8.9358746642692868
  5.3073239174885449 10.7071526951371538 12.3997753713528098
 10.5253732015311208  5.3830815548183661  1.7525120742898888
 -0.0321401666744823  1.8073578738381981 12.2372238539529583
  1.6761602761536911  5.3745682805427526 10.5446245816506181
  8.8428500054066355 12.3796443054004257 10.5719233080325186
  1.6799691972750350  8.8472326143825732  7.0691413764093438
  7.1194778925126139 12.3455338094242570  5.2962194353854439
 12.3444007826329489  0.0812943606914535 12.2964212868065061
  8.7528907130031222 12.3263463012789831  7.0540987817106764
  3.5202074900990987  3.4756495791388651  3.4762249534342025
  3.4503375997162942  8.8196726530218434  5.3842390033029579
  1.7730945540934020 12.2210779293606322  3.6002383846675263
  3.4523425932590399 10.5825894098194109  6.9880361496083943
  7.0476974358010782 12.3747980633623396  1.7370101198666372
  5.3031034877313772  8.6875862113905740  3.5248161352022960
  8.9481368203184584  5.3093310678029324  7.0229161861050713
 12.3044632579474360  5.3113308071765051  7.1265549777041191
 -0.0794870938079009 12.2967078340508422 12.3459698671069802
 12.3608326153201986  8.7580932452180402  7.0371777745146922
  7.1042668254886108 10.5501385814639512  7.0097970325702761
  1.7323061346720621  3.4897195937748640  5.2601670362258224
 12.3873519781381827 12.3149812719608533  7.1075606926865644
  3.4562627635209027  5.3932910617170160  8.7936443319761857
  0.0344502823556787 12.2894247683080966  5.3021852624393819
  5.3580001939562329 12.3315390196541177  0.0018817916495016
 -0.0475546615649699  8.8030356074847891 12.3697021525281858
  1.7708919791995050  7.1158500870124408 12.3025845046845941
  3.4727170598868260  3.5468565377176420  7.1472491146689974
  3.4484568924824814  7.1020008561442491  7.0284311299439031
 10.5559555145715862 12.3220974780645776  5.2873032209175399
 10.7264610689551052  8.7370430297495894  8.8122455151167394
  5.2601460124394874  5.3365320098561480 10.5265273380658151
  3.4669203328883373  8.8161316991299525 12.4125893440792581
  8.9418147108421202  5.3911720298368362 10.5709503594687888
 12.3469344227209934  7.1471861732384818 12.3066796553449063
  8.7567857278972046 10.6334721765080431  1.7233592326660259
  8.8058115886513733  7.0092183802527339  1.7792890648294883
 -0.0240639768801948  1.8998992784252497  5.3100139084817046
  1.7034705204612415 10.5733058856348432 12.4052946549601995
  7.0960522948665128 -0.0999905640571636 -0.0596694699556193
 12.3364673342210107  8.8122719729152390 -0.0133353265814186
 10.5440647909658765  5.4034689712921935 12.3198238854739035
  5.3263469204315648 -0.0487338653531099  1.7760287601940787
  0.0429597819585486  8.8067170316762535  5.4161078262668569
  0.0675120795271383  5.3343608292532814 12.2256341227824628
 10.6050833360116670  8.7195318589189306  5.2965967250836465
 12.3447245385936775  5.3303763470267906  3.5749961717801253
  1.6722946041441458  3.4691343532655048 12.2226683977221509
  0.0243771571172482  5.2792982314336516  1.8421914206260104
  0.0592979013782646  8.9404006693960714  1.7397271617121479
  5.3011104527802404 12.3939506944423812  3.5453475974867099
  5.3067083808894733  3.5608953603114699  1.8180617541874908
  7.1095212138057944 -0.0520459632981613 10.5790173269756842
  1.7566323734352598  1.7544844398505111 10.5188346987262857
 10.6614933587506648  8.7780113803481914 12.3020080785307080
  7.0893286457898350  6.9925597519348761  0.0868538141966694
 -0.0026738729465317  7.1093333477732079 10.5777481134120404
  8.8720792107459392  8.7381197908777501  3.5532046932063035
  7.0156557600043303  8.8299529042747231  8.8462608050209930
 10.5963378121035081  1.8034808535186944  5.3089997365095147
 10.6064128104602933  7.0518632622376751 -0.0333683608013131
 12.3149920637673347 12.3171551265984132 10.5941992688274009
  5.2979390836223850  1.7522288122339282  3.4826385042584458
 10.6190219890808368 -0.0324137554522713  3.5528274617321802
 -0.0133830272812438  3.5126136060773594 10.5459793035898475
  8.8168569176901190 12.3395907706855290 -0.0172919464369331
 -0.0806122724166055  1.7223897308841800  8.8719174143072124
  7.1314249784080097  8.7948242153305713  1.7444728265619331
 12.3875687981529001  7.0573762636221318  8.7910074795843443
  1.7751883722668145  3.6156832822106963  8.8799255436202138
  5.2935714096970639 -0.0582410838058024  8.8496736626679020
 10.6356788494533525  5.3328838279425295  5.3554386133742442
  0.0148653496039639 10.5639467868263726  3.5676520595195367
 12.3561923925703567  3.5229411265703674  8.7818290501872109
  3.4727656670819700 12.3240520504381355  8.8460294469874849
 12.3763011408527337 10.5093850086533376  1.7674048282060748
 10.6059238477780351  5.3225097253428171  8.7900410885388229
  8.8519813690889535  5.3265117895236145  0.0286162162690768
  7.0681677742068727  3.5253474095820927  3.5249996589751902
 10.6377683806884793 -0.0017029929003749 10.5599664389344561
  3.4769113951946560 12.3298159030563195 12.3526801731935549
  7.0509311452790957  5.2883431953224571  1.7449118014382079
  1.6900164057402953  8.8722314705010685  3.5813679028415790
 10.6347226090676088  3.5730347748904769  7.0712451717732128
  5.2826213834900209 12.3439469867139735 10.5610218812707188
 -0.0254228561364318  8.8007178178399617  8.7786408840947026
 12.3573681772000050  3.5037463376810654 12.3073243744940832
  1.7338074625275774  7.1138270228099989  5.3726671015524534
  5.2743989829613040  5.2994315941931616  0.0690675455495393
  8.8641605098260321 10.5823228175080892 12.2629848355143434
  7.0565564356084343  3.5609714485618893  0.0203915595977675
 12.3605346956495517  0.0273768844829346  1.7862925887459811
 10.6194930430690295  1.7686798330509717  8.8112368349484811
  8.8519551795501421 10.5758672626847599  5.3431128136223327
 10.6375728686309827  7.0485012203579114  7.0603041374853071
  1.7659557388521832  5.2744559933208386  7.0945234486841882
 12.3634540232724479 12.3092142321695697  3.5605472194569008
  7.1044997133429071 -0.0239584110929575  7.0592800807076390
 12.3133717216734624  0.0010388609281995  8.8262804363229588
 12.3506146466233577  1.8019368419558948  0.0142124042954376
  8.8561577574503776  7.0373307272138019 12.3552898081573677
 -0.0055171006281142  5.3009414970134285  8.7843692050086215
  7.0800553085236952  1.7119112063130388 12.3178120002013856
 10.6355905966272921  7.0640345517154390 10.5632195602818069
  8.8063404290683280 12.3196888921897578  3.5317251770829627
  7.0679679535820776  7.1109256115940953  3.5388349649430126
  7.0984750323398886  8.7836555532708598  5.2928620321086406
  8.7886608032726556  1.7153554447228261 -0.0277868050333724
 12.3644595176742467  8.7644348409835597 10.5617830066042622
  1.7226308687136389  1.7949931035288254  3.5504952186035927
 10.6306710142392156  1.7324236303146727 12.3428111300531214
  1.7404742645592386  8.8526139091471698 -0.0471597052887563
  3.4818677461051952 -0.0538287003260293 10.5400377102278178
 -0.0573792439345120 10.5294690266729631 -0.0481505373450290
  1.7415043625764497  5.2523870529877428  3.5093553688775865
  1.7364756567170792 10.5868243735686693  1.7509373704271523
 12.3368826082188860  1.8058924103749647  7.0466234022162748
  3.4973229420002188 10.5064848731825844  3.5832282316025981
 12.3235295609410365  1.7710000676150788 10.5571416733710919
  5.2506465298899849  3.6220208623432733  8.7961240641195069
  3.4908120213222622  1.7580498754273164  8.8465014924604546
 12.3416056725890346  3.5857641990519973  5.3296195375928042
 10.6299897687742622 12.3165412361322648  8.8925434986319267
 -0.0820182507866987  3.5793876653421517  7.0346772544614691
  5.3213784811240856  3.5547766719949663 12.3146485672961994
  1.7419170056307189 10.5885231536728188  8.7970636660223374
 -0.0183369697248139  7.0552161034072816  7.0865241010067335
  8.9019783478686314  7.0480562050754010  8.8094844074402126
  7.0440825875021131  5.3266718806651641  5.3492449637999506
  8.8416676855031699  3.5653466390534323  5.3432386774842193
  1.6947394522821457  7.0831785592417704  1.7483852247102534
  8.8240190715872657 -0.0137007092170698 12.3343919051633097
 -0.0354392489759199 10.5526378252468582  7.0820577759928458
 12.3387047677187809 10.5181648281275688 12.3430450470054254
  8.8413409567500061  3.5672680180973444  1.7504071748209244
 12.3267032792468498 10.5231560177148804  8.7942301189149017
 12.3622655918649560  7.0556919126457514  5.3302401848668621
  7.0829513136040712  7.0222290546290633 10.5868447976008717
  3.5219467143638128 10.6061734026364789 -0.0578012088442732
  1.7619257503608741  1.7710416334414019 -0.0679288704264439
  8.8664530324040882  7.0495927498279825  5.3032503528580532
  3.5186752638594325  1.7606932164044058  5.2640735497103535
  0.7080855003243760  2.7911150555887714  8.1004313965271866
  0.9518716428710310 13.2634729144280143 13.1865912876699749
  6.9935119080453179 12.3416214447475365 10.5758327843705349
  3.4537826348592739  3.3905885955091275  5.3183952428167203
