Cu  H 
 1.0000000000000000
    15.4648923874000008    0.0000000000000000    0.0000000000000000
     0.0000000000000000   10.9353294373000001    0.0000000000000000
     0.0000000000000000    0.0000000000000000   32.0000000000000000
 Cu  H  
 216   4
Selective dynamics
Cartesian
  0.0000000000000000  0.0000000000000000  0.0000000000000000   F   F   F
 -0.0001499034783819  0.0009852789205911  5.1603952814608016   T   T   T
 -0.0059555918917078 -0.0056401509406560 10.3556986873699248   T   T   T
  0.0000000000000000  3.6451099210000000  0.0000000000000000   F   F   F
  0.0833269511602488  3.5808768418417900  5.1779281269432955   T   T   T
 -0.0857157699164422  3.5758197765508419 10.3734854781142047   T   T   T
  0.0000000000000000  7.2902198420000000  0.0000000000000000   F   F   F
  0.0058098350072623  7.3134099131147723  5.1650418377769682   T   T   T
 -0.0180096605733136  7.3195158573006331 10.3598475314163458   T   T   T
  5.1549642830000000  0.0000000000000000  0.0000000000000000   F   F   F
  5.1570047004189039 -0.0048700144030589  5.1566411806653676   T   T   T
  5.1593592982712071 -0.0179115968023676 10.3499697261666217   T   T   T
  5.1549642830000000  3.6451099210000000  0.0000000000000000   F   F   F
  5.1564354581545411  3.6454469321933112  5.1466698806742093   T   T   T
  5.1583117617841774  3.6909166493110983 10.4307450816546048   T   T   T
  5.1549642830000000  7.2902198420000000  0.0000000000000000   F   F   F
  5.1548926250300662  7.2917523281162913  5.1520008907093588   T   T   T
  5.1592977690464350  7.2939273172420478 10.3348818182842237   T   T   T
 10.3099285660000000  0.0000000000000000  0.0000000000000000   F   F   F
 10.3070403686616547 -0.0011873802607483  5.1574971747574807   T   T   T
 10.3036521808797197 -0.0035501977296940 10.3346402146459919   T   T   T
 10.3099285660000000  3.6451099210000000  0.0000000000000000   F   F   F
 10.2914956115293581  3.6441021581322253  5.1637068766645253   T   T   T
 10.3098456444142190  3.6411207815610158 10.3289397952137509   T   T   T
 10.3099285660000000  7.2902198420000000  0.0000000000000000   F   F   F
 10.3104521578953712  7.2907150069222375  5.1579950180769405   T   T   T
 10.3117220298322732  7.2898972517946490 10.3327377890804453   T   T   T
  2.5774821409999999  0.0000000000000000  2.5774821409999999   F   F   F
  2.5800419091778277 -0.0192294385550816  7.7451745773300482   T   T   T
  2.5884147044689936  0.0021601722587697 12.9766804962820057   T   T   T
  2.5774821409999999  3.6451099210000000  2.5774821409999999   F   F   F
  2.5641063045475261  3.6429771832319617  7.7298734047022934   T   T   T
  2.5838658055697530  3.6284894177071454 13.0037203133927406   T   T   T
  2.5774821409999999  7.2902198420000000  2.5774821409999999   F   F   F
  2.5841792792169245  7.3166570164839309  7.7412059390131649   T   T   T
  2.5717534133088953  7.3157467349831959 12.9763463976001088   T   T   T
  7.7324461940000004  0.0000000000000000  2.5774821409999999   F   F   F
  7.7389100544475991 -0.0153219340702255  7.7344515116056600   T   T   T
  7.7215449211541518  0.0148973664356937 12.9533467549082637   T   T   T
  7.7324461940000004  3.6451099210000000  2.5774821409999999   F   F   F
  7.7503601891160558  3.6506844998346941  7.7356382775143091   T   T   T
  7.7186143465261932  3.6374213077340043 12.9450994258619012   T   T   T
  7.7324461940000004  7.2902198420000000  2.5774821409999999   F   F   F
  7.7386706316856202  7.2932251940504402  7.7390140725583816   T   T   T
  7.7405318876683502  7.2963917914205858 12.9500230864271888   T   T   T
 12.8874100160000005  0.0000000000000000  2.5774821409999999   F   F   F
 12.8795911488566084 -0.0114356904890936  7.7534562283822259   T   T   T
 12.8720369498705729  0.0009160237159192 12.9621208862806476   T   T   T
 12.8874100160000005  3.6451099210000000  2.5774821409999999   F   F   F
 12.8807291153140309  3.6322301486765123  7.7802680591460778   T   T   T
 12.8862017896629713  3.6315098741195024 12.9591205565495571   T   T   T
 12.8874100160000005  7.2902198420000000  2.5774821409999999   F   F   F
 12.8719142635454897  7.3175781425966022  7.7690096817248291   T   T   T
 12.8774642715295382  7.2963948681063977 12.9741779136593482   T   T   T
  1.2887410710000000  1.8225549610000000  1.2887410710000000   F   F   F
  1.2997171003802805  1.7978482711933319  6.4750667343969468   T   T   T
  1.2899693430301327  1.7946389489458019 11.6437959089511605   T   T   T
  1.2887410710000000  5.4676647190000001  1.2887410710000000   F   F   F
  1.3023961236169348  5.4841872492211623  6.4521150682887072   T   T   T
  1.2776887754339052  5.5389496521600927 11.7045559278084106   T   T   T
  1.2887410710000000  9.1127743139999993  1.2887410710000000   F   F   F
  1.2910114016830612  9.1244227396004511  6.4550185824112303   T   T   T
  1.2819239242984277  9.1187022591552029 11.6364277532361946   T   T   T
  6.4437050080000002  1.8225549610000000  1.2887410710000000   F   F   F
  6.4506881955591133  1.8125846949151716  6.4374705189739760   T   T   T
  6.4512577833772404  1.8135429131278753 11.6638213402710988   T   T   T
  6.4437050080000002  5.4676647190000001  1.2887410710000000   F   F   F
  6.4510252117674423  5.4793400069931453  6.4434170919712210   T   T   T
  6.4606422721164982  5.4869952021324631 11.6194141510987681   T   T   T
  6.4437050080000002  9.1127743139999993  1.2887410710000000   F   F   F
  6.4470571491808357  9.1067050398231491  6.4460431679225820   T   T   T
  6.4555175078526128  9.1022297428963483 11.6107175577144233   T   T   T
 11.5986692910000002  1.8225549610000000  1.2887410710000000   F   F   F
 11.5878487781154007  1.8037677060716899  6.4671417461391165   T   T   T
 11.5825349872706003  1.8154792043179122 11.6127346088222474   T   T   T
 11.5986692910000002  5.4676647190000001  1.2887410710000000   F   F   F
 11.5853208999879076  5.4764929923097689  6.4693166689610742   T   T   T
 11.5906313453123424  5.4664477948257657 11.6114142743344395   T   T   T
 11.5986692910000002  9.1127743139999993  1.2887410710000000   F   F   F
 11.5922226762141864  9.1185725850164587  6.4547984724807774   T   T   T
 11.5898357557121781  9.1135772359650371 11.6179126681204909   T   T   T
  3.8662230970000002  1.8225549610000000  3.8662230970000002   F   F   F
  3.8104088974324033  1.7690965109433674  9.0486258775486910   T   T   T
  3.9049990691703154  1.8009725027643126 14.2430038258751797   T   T   T
  3.8662230970000002  5.4676647190000001  3.8662230970000002   F   F   F
  3.8676263306668197  5.4934828382778340  9.0367282883558779   T   T   T
  3.8609234049560661  5.5029758698863960 14.1324077499777854   T   T   T
  3.8662230970000002  9.1127743139999993  3.8662230970000002   F   F   F
  3.8740857928363153  9.1146418610357731  9.0400854414688077   T   T   T
  3.8681514347517361  9.1153362916767495 14.1376521475355403   T   T   T
  9.0211869189999998  1.8225549610000000  3.8662230970000002   F   F   F
  9.0317989547000881  1.8204546213850283  9.0337856276226365   T   T   T
  9.0029474157937948  1.8264143092700738 14.1042453579923848   T   T   T
  9.0211869189999998  5.4676647190000001  3.8662230970000002   F   F   F
  9.0293988889814933  5.4679972731782094  9.0319033871451868   T   T   T
  9.0161516070756935  5.4562691811284418 14.1071349324233157   T   T   T
  9.0211869189999998  9.1127743139999993  3.8662230970000002   F   F   F
  9.0231170080362926  9.1079821090005080  9.0338590365634257   T   T   T
  9.0164042661283315  9.1240387722780110 14.1133240196259173   T   T   T
 14.1761516620000005  1.8225549610000000  3.8662230970000002   F   F   F
 14.1647787306006094  1.7980433429800018  9.0470253014435009   T   T   T
 14.1681850121361386  1.8029328904423187 14.1450125221724097   T   T   T
 14.1761516620000005  5.4676647190000001  3.8662230970000002   F   F   F
 14.1552358176067106  5.4765762476974675  9.0772594897357326   T   T   T
 14.1703038920345676  5.4629737791305129 14.1315135627828443   T   T   T
 14.1761516620000005  9.1127743139999993  3.8662230970000002   F   F   F
 14.1665632718088137  9.1277546996718399  9.0549170380837154   T   T   T
 14.1611225640790597  9.1253666585060831 14.1424204094971397   T   T   T
  2.5774821409999999  0.0000000000000000  0.0000000000000000   F   F   F
  2.5786696138026692 -0.0048672229431091  5.1550740768636913   T   T   T
  2.5769043615971072 -0.0164917670932236 10.3536643137113664   T   T   T
  2.5774821409999999  3.6451099210000000  0.0000000000000000   F   F   F
  2.5969327295838633  3.6436865668438592  5.1614040424711343   T   T   T
  2.6201524438271067  3.6069433059102574 10.3673512526570999   T   T   T
  2.5774821409999999  7.2902198420000000  0.0000000000000000   F   F   F
  2.5772220328855835  7.2941947525407489  5.1538941655645685   T   T   T
  2.5795577143283315  7.3182162547088438 10.3455685917733433   T   T   T
  7.7324461940000004  0.0000000000000000  0.0000000000000000   F   F   F
  7.7345523011236663 -0.0048079766921697  5.1543322381427119   T   T   T
  7.7383242246597135 -0.0150082803544854 10.3363261693216106   T   T   T
  7.7324461940000004  3.6451099210000000  0.0000000000000000   F   F   F
  7.7308746196572820  3.6454134105587985  5.1587026108023437   T   T   T
  7.7451610210644120  3.6535499947029795 10.3384679982390200   T   T   T
  7.7324461940000004  7.2902198420000000  0.0000000000000000   F   F   F
  7.7354772749537535  7.2898626767401202  5.1537130256921211   T   T   T
  7.7403455654565638  7.2942527951104186 10.3314697313488661   T   T   T
 12.8874100160000005  0.0000000000000000  0.0000000000000000   F   F   F
 12.8854073715385642 -0.0017147885269022  5.1593449002952525   T   T   T
 12.8758294099381612 -0.0037426743585729 10.3441154139807292   T   T   T
 12.8874100160000005  3.6451099210000000  0.0000000000000000   F   F   F
 12.8107942972190951  3.5877743722766335  5.1798987338505968   T   T   T
 12.8673366730022778  3.6340466613749558 10.3521592306928358   T   T   T
 12.8874100160000005  7.2902198420000000  0.0000000000000000   F   F   F
 12.8797430811843068  7.3087213647533646  5.1686247786023802   T   T   T
 12.8791878865488219  7.2998306160471911 10.3530767181612529   T   T   T
  0.0000000000000000  0.0000000000000000  2.5774821409999999   F   F   F
 -0.0018064380775499 -0.0164876779944899  7.7575261857198985   T   T   T
 -0.0073421779842507 -0.0084240796818630 12.9743138553009523   T   T   T
  0.0000000000000000  3.6451099210000000  2.5774821409999999   F   F   F
 -0.0061940293238532  3.6252950268707989  7.7710453299971540   T   T   T
 -0.0044595911174673  3.6286537324675963 13.0053585657503223   T   T   T
  0.0000000000000000  7.2902198420000000  2.5774821409999999   F   F   F
 -0.0014205946691984  7.3310886550063978  7.7654620451817937   T   T   T
 -0.0128438455002799  7.3110000820390075 12.9935664658632124   T   T   T
  5.1549642830000000  0.0000000000000000  2.5774821409999999   F   F   F
  5.1593432676413453 -0.0220122154621509  7.7378793079576029   T   T   T
  5.1601385125571877 -0.0222271807374889 12.9328508560764988   T   T   T
  5.1549642830000000  3.6451099210000000  2.5774821409999999   F   F   F
  5.1529993974440291  3.6968526175495140  7.6711641823655237   T   T   T
  5.1475120690332581  3.6686928824429996 12.9604207348575269   T   T   T
  5.1549642830000000  7.2902198420000000  2.5774821409999999   F   F   F
  5.1599979219278058  7.2946308541687781  7.7373056533830304   T   T   T
  5.1584701340914227  7.3090680204358351 12.9521531302872095   T   T   T
 10.3099285660000000  0.0000000000000000  2.5774821409999999   F   F   F
 10.3053442928071153 -0.0060707962549252  7.7456352456286561   T   T   T
 10.2999702687615518  0.0045895833448725 12.9498421968701560   T   T   T
 10.3099285660000000  3.6451099210000000  2.5774821409999999   F   F   F
 10.3180853464649527  3.6412093777710974  7.7422814641845799   T   T   T
 10.3026073158629998  3.6399039856984565 12.9402362147398957   T   T   T
 10.3099285660000000  7.2902198420000000  2.5774821409999999   F   F   F
 10.3069331078267155  7.2946032048340586  7.7472271213476880   T   T   T
 10.3084579250767465  7.2896007878942521 12.9579960816875879   T   T   T
  1.2887410710000000  1.8225549610000000  3.8662230970000002   F   F   F
  1.2810298522853079  1.7941690149021989  9.0530095402732655   T   T   T
  1.3006507797401903  1.7977259511420545 14.1415045951268361   T   T   T
  1.2887410710000000  5.4676647190000001  3.8662230970000002   F   F   F
  1.2806173027679106  5.5312954446777818  8.9742005898793824   T   T   T
  1.2874640173021885  5.4683346860284257 14.1576075312859153   T   T   T
  1.2887410710000000  9.1127743139999993  3.8662230970000002   F   F   F
  1.2873120910876663  9.1177359873369248  9.0527910515710612   T   T   T
  1.2865709828255076  9.1334990832987017 14.1499619806931243   T   T   T
  6.4437050080000002  1.8225549610000000  3.8662230970000002   F   F   F
  6.5131690394847732  1.7656893973425207  9.0438735036224571   T   T   T
  6.4114777413908879  1.8226607721147920 14.2252872589643502   T   T   T
  6.4437050080000002  5.4676647190000001  3.8662230970000002   F   F   F
  6.4583782812206589  5.4848848509618779  9.0375076672762855   T   T   T
  6.4459436412189524  5.4909850472185928 14.1177347579069252   T   T   T
  6.4437050080000002  9.1127743139999993  3.8662230970000002   F   F   F
  6.4483260571600844  9.1070285440301202  9.0341948416167082   T   T   T
  6.4529886666429634  9.1148486024900155 14.1196209528239329   T   T   T
 11.5986692910000002  1.8225549610000000  3.8662230970000002   F   F   F
 11.5907639818626542  1.8088038390422614  9.0422029948635494   T   T   T
 11.5844319751013156  1.8235530789451373 14.1195580073067131   T   T   T
 11.5986692910000002  5.4676647190000001  3.8662230970000002   F   F   F
 11.5956485349597731  5.4688967209786501  9.0409885849898703   T   T   T
 11.5941416983063927  5.4527273267864693 14.1089023114608310   T   T   T
 11.5986692910000002  9.1127743139999993  3.8662230970000002   F   F   F
 11.5903538307992839  9.1165606346007166  9.0452196290785523   T   T   T
 11.5846831878924714  9.1217180738214836 14.1217803049528481   T   T   T
  3.8662230970000002  1.8225549610000000  1.2887410710000000   F   F   F
  3.8653243424082864  1.8057604605972764  6.4391233988440852   T   T   T
  3.8586425447567212  1.8068924745174781 11.6815248995286609   T   T   T
  3.8662230970000002  5.4676647190000001  1.2887410710000000   F   F   F
  3.8615197817102005  5.4846708836454008  6.4454707598915251   T   T   T
  3.8679656777987765  5.4948794182267573 11.6371600676836984   T   T   T
  3.8662230970000002  9.1127743139999993  1.2887410710000000   F   F   F
  3.8699819995669618  9.1085723067937998  6.4463612533424630   T   T   T
  3.8643083319600522  9.1084782674310869 11.6232233570976629   T   T   T
  9.0211869189999998  1.8225549610000000  1.2887410710000000   F   F   F
  9.0168887001981268  1.8165523719572512  6.4538310013138114   T   T   T
  9.0093045066295208  1.8214027490645179 11.6026130261568952   T   T   T
  9.0211869189999998  5.4676647190000001  1.2887410710000000   F   F   F
  9.0216916098637903  5.4718103608445912  6.4484882966396615   T   T   T
  9.0276879503583043  5.4724028698092368 11.6058218573606702   T   T   T
  9.0211869189999998  9.1127743139999993  1.2887410710000000   F   F   F
  9.0219747365176843  9.1099713826035575  6.4492094212399955   T   T   T
  9.0244068349039352  9.1108027298549636 11.6104812761433784   T   T   T
 14.1761516620000005  1.8225549610000000  1.2887410710000000   F   F   F
 14.1750290472047933  1.7915040647000371  6.4732688837995296   T   T   T
 14.1625020651654054  1.7985521477575583 11.6377628315851478   T   T   T
 14.1761516620000005  5.4676647190000001  1.2887410710000000   F   F   F
 14.1783695818889317  5.5408087074468773  6.5683399287906026   T   T   T
 14.1521976784686636  5.4766166451993445 11.6411319363125312   T   T   T
 14.1761516620000005  9.1127743139999993  1.2887410710000000   F   F   F
 14.1720385054701694  9.1187765411542649  6.4577579588178331   T   T   T
 14.1628470763551437  9.1221174478617293 11.6343303523624613   T   T   T
  1.2431519051912856  4.5731787687959544 10.3479568220183964   T   T   T
 14.1840712909953659  4.5310636178825234  5.2627955424260735   T   T   T
  5.1755092004966103  2.7541088474618989  9.0490548969805236   T   T   T
  5.1634686002521404  2.0396046241187746 15.2789015283694241   T   T   T
