Al  H 
 1.0000000000000000
    16.1521472486673723    0.0000000000000000    0.0000000000000000
     0.0000000000000000   16.1521472486673723    0.0000000000000000
     0.0000000000000000    0.0000000000000000   16.1521472486673723
 Al  H  
 256   4
Cartesian
 -0.0030396765995652 -0.0041757237418054  0.0009897337058733
  0.0097411116986296  2.0186839373983698  2.0277227513038691
  2.0187325475320486 -0.0025314493413231  2.0175014214887299
  2.0188772891945095  2.0176815111522268 -0.0010064803628752
  0.0003619220292788  0.0004998399569282  4.0352409271783705
 -0.0012829820683464  2.0184867354019138  6.0593118166124063
  2.0260352642202712 -0.0004141733445561  6.0510925352009153
  2.0229964961820310  2.0202652212877981  4.0409730606383407
  0.0132652155773016  0.0150063296746574  8.0788551792311285
 -0.0024393447496227  2.0226649903757927 10.1004129800035205
  2.0181004438998476  0.0002309437382549 10.0945829860881933
  2.0204764574688960  2.0190648439050869  8.0759212767942135
 -0.0019181474498505  0.0002433399331073 12.1164496437816336
 -0.0016438230171939  2.0157146025598087 14.1318660864478609
  2.0194205571098669  0.0097717407664096 14.1232343658436754
  2.0212705221138334  2.0220082760292106 12.1109117674470834
  0.0100798655099941  4.0327476000841829 -0.0061483815690087
  0.0151549892894101  6.0232853473081978  1.9837395359664864
  2.0254065317792933  4.0259153860379344  2.0149399240604993
  2.0274489263258899  6.0549029669431427 -0.0077202753298163
  0.0022214128369406  4.0373493759292645  4.0371860171444869
 -0.0054756135633147  6.0681399546754813  6.0442130887741072
  2.0170937087066116  4.0398090449978028  6.0589421946861233
  2.0553946511388168  6.0231310028455152  4.0233239240692438
  0.0011559870062274  4.0396187904425496  8.0734860498240231
  0.0006634307087344  6.0608044284581188 10.0922272861537508
  2.0190623543366515  4.0376055094070109 10.0953303606711273
  2.0135497630631014  6.0516260523297252  8.0832630263655538
 -0.0021393108507493  4.0329035015430348 12.1102472299517139
  0.0106930896093597  6.0557088961340675 14.1223471553817141
  2.0179641468396738  4.0382368597688041 14.1323248392285858
  2.0195860090293483  6.0565374398654059 12.1140841988315753
 -0.0093491853104555  8.0462670148863484 -0.0291923995886819
 -0.0706752446677944 10.0168431885244100  1.9569212971944738
  2.0481229320134240  8.0819815096619614  1.9899091763213772
  2.0093645872645509 10.1048412412221662  0.0160326113542725
  0.1073249482287362  7.9921148990018818  3.9309078032841303
  0.0886499020172157 10.1596841411872330  6.1033769304791168
  2.0176957530607402  8.0499359242895974  6.0754000833317896
  2.0813031289862338 10.0166966023346440  4.1088372821777321
 -0.0135363824052986  8.0909699415410206  8.0558622301579490
  0.0068139507120929 10.0925810578812669 10.1088130900888817
  2.0145271045510751  8.0733640508176467 10.0917671888198299
  2.0550051028063137 10.1056822475702734  8.1061735467623190
  0.0001100095599506  8.0723861250575979 12.1179043192481952
 -0.0006209950001620 10.0965387059592615 14.1350295645412309
  2.0233223046387883  8.0819469715955918 14.1362007502149041
  2.0260603420922836 10.0930159400803792 12.1159735455536222
  0.0096896388044261 12.1048416758768340  0.0162996540671184
  0.0096549119540243 14.1149921844977460  2.0303053513445901
  2.0970489206858569 12.1923601442312055  1.9409276198012539
  2.0299505187895650 14.1625408808955360 -0.0295630063700879
 -0.0811847783083390 12.1676843402555832  4.1191487512443992
 -0.0043563144170683 14.1724018622952013  6.0828671529564833
  2.0446898256059822 12.1373237155580913  6.0473590559469264
  2.0062129746503614 14.1143996296485668  4.0268893408997020
 -0.0039573321300847 12.1297113653159858  8.0905114619474165
  0.0102201265776333 14.1365489183906288 10.0978411961841594
  2.0212132589300085 12.1168704441265191 10.1017459593757852
  2.0236077786512023 14.1364629677640039  8.0768851247396860
  0.0123695368683760 12.1068966076638773 12.1179918104743436
 -0.0034700633395577 14.1324581757497789 14.1366198298983665
  2.0194997041395992 12.1153627583569747 14.1354081335983572
  2.0187623137219042 14.1336891530184161 12.1150509663660682
  4.0420099658044046  0.0091607091024615 -0.0028926299914796
  4.0408324222613832  2.0163597639453972  2.0168471443852147
  6.0567877289103560  0.0108830367145988  2.0299437044744524
  6.0606669698794979  2.0219144067071819 -0.0043832050697314
  4.0315586195875950 -0.0026962617390539  4.0412802095777014
  4.0365658200897920  2.0195076692884819  6.0558845733185693
  6.0586587654840720  0.0024436487127790  6.0576475101724352
  6.0595316821481244  2.0165852443161794  4.0374825746290375
  4.0390373228616259 -0.0002135378235051  8.0760733209999600
  4.0396593088723831  2.0188930375642169 10.0943172996492674
  6.0595268951284478 -0.0004204511687322 10.0987300336687191
  6.0474510406387409  2.0184199647490151  8.0669796954595370
  4.0362364910334643  0.0010272202215255 12.1121827247902960
  4.0363124923339706  2.0208346945985802 14.1319440495064921
  6.0589307997035382  0.0002866054594840 14.1329595925586577
  6.0587158241762191  2.0187970113961504 12.1144429367288602
  4.0401456658926502  4.0384250332699860 -0.0008535920542959
  4.0459750917018811  6.0539975992278423  2.0129072839332016
  6.0594158867170869  4.0376049473421336  2.0184378158776553
  6.0595727813415259  6.0575297969297273 -0.0013609081694457
  4.0495684714989038  4.0279949324618212  4.0379566502051878
  4.0411170923295314  6.0486573672656307  6.0622824865298028
  6.0560792993843453  4.0351335052011610  6.0546045253736072
  6.0661326152857544  6.0460692803910909  4.0368918814096464
  4.0342935467469081  4.0373320466493201  8.0764407592791638
  4.0346797877937606  6.0567027556465396 10.0961218002413222
  6.0466585488881481  4.0414050571473865 10.0915917301472362
  6.0572600213192169  6.0551107972873632  8.0768938723601362
  4.0394305292155925  4.0387771870495204 12.1138198319980503
  4.0398793495006773  6.0570007389361677 14.1317642258691265
  6.0596660314556248  4.0344447928581522 14.1334042774378563
  6.0472017093683315  6.0667279847306004 12.1144361100486684
  4.0447758666746241  8.0801716200726901 -0.0067715838927677
  4.0218142469927658 10.1044278293792136  2.0286977907223154
  6.0535609645081072  8.0796915164127583  2.0171841334768170
  6.0533443162798877 10.0916396715434189  0.0032599501470084
  4.0672191204200283  8.0444114582517230  4.0485056883353465
  4.0674517818975513 10.0822709417079661  6.0859497567565866
  6.0673961419100264  8.0723403336023889  6.0608133778912530
  6.0551874491885798 10.0954609451781696  4.0377236381153327
  4.0406742414499135  8.0695615920102579  8.0827793315085525
  4.0508016357067032 10.0951726010505602 10.1059956725392492
  6.0564635901536121  8.0788663867364754 10.0962728477772981
  6.0664943471888462 10.0966202640974174  8.0864330354480920
  4.0348994884905460  8.0776419078710173 12.1134741953549554
  4.0330960474157509 10.0920672721655169 14.1357208779150874
  6.0593527779437286  8.0752879592924103 14.1323706878316013
  6.0590055754417067 10.0952225871501522 12.1182049853130742
  4.0656678276048988 12.1254933760076220 -0.0290787054138224
  4.0656973851101252 14.1622049613210450  2.0078056562857691
  6.0545344524306577 12.1143845883934134  2.0179507682095048
  6.0568482761678029 14.1331637420898630 -0.0000796013708362
  4.0209432067107338 12.1034187926585410  4.0272640293765747
  4.0455987124096175 14.1409546473104655  6.0528889416964997
  6.0539696220337760 12.1154361085414788  6.0534624136879138
  6.0538314375315512 14.1285189914290346  4.0420287000895829
  4.0457442933485126 12.1201134257557079  8.0782773144964644
  4.0393900250826515 14.1332016496620234 10.0941795308679616
  6.0587268697622250 12.1142894163782078 10.0959697916030500
  6.0587830556553817 14.1346390476348489  8.0749351045145144
  4.0395656896362819 12.1158233503133257 12.1151241214276819
  4.0420578421658950 14.1358385721939115 14.1237140642741537
  6.0568803635692108 12.1035228332361484 14.1220251535848771
  6.0605140968583964 14.1375330500938450 12.1111486218315321
  8.0485060438486720 -0.0118883240320119  0.0290917221460538
  8.0826485187071047  2.0221887443935298  2.0168991284497726
 10.0957832760321953  0.0004733147427709  2.0177472214387380
 10.1028587232462144  2.0109546795184827 -0.0183869937114244
  8.0735493042024835 -0.0009896049095058  4.0369720397598003
  8.0707449633641399  2.0172044666125015  6.0580711937041052
 10.0894184962697206  0.0034965271425743  6.0555803010695133
 10.0934143448221292  2.0216948552095282  4.0400222248504312
  8.0810564785718366 -0.0014926238199094  8.0787996704553038
  8.0467262901349255  2.0319829228134685 10.0659642522453776
 10.1028665785291789  0.0072732766600607 10.1135483106637079
 10.0946221409841783  2.0182233407138086  8.0771728117048625
  8.0942165471506176  0.0082156195670242 12.1221744691437898
  8.0941790704391341  2.0109866029076708 14.1248126965337626
 10.0219656585010224 -0.0730992661132776 14.2062837093346914
 10.0214945930518340  2.0923355514227029 12.0408086019139713
  8.0796429157041239  4.0340384359946357 -0.0039730620456163
  8.0758952937911204  6.0563244251389357  2.0166211022801623
 10.0933461392731090  4.0333836519382542  2.0165898878764223
 10.0929674934511731  6.0534616325000226 -0.0029013741320082
  8.0786797899920639  4.0378025117193301  4.0377398185496904
  8.0747546429138239  6.0524910914381094  6.0553727722016610
 10.0838766099904227  4.0275029562100553  6.0578832386957560
 10.0977366097796999  6.0612659126457054  4.0354709972820526
  8.0713996434521320  4.0418667862877138  8.0654814966116817
  8.0705018033337534  6.0674488757310341 10.0921352152654542
 10.0825417331932030  4.0672727501827639 10.0663377634498694
 10.0894248283275143  6.0647984797426417  8.0711193555257044
  8.0467100262627138  4.0674501720973995 12.1013179583966846
  8.0802498881818661  6.0544640487647348 14.1338408023029345
 10.1026051661993534  4.0194059604040273 14.1252954706972265
 10.0952709245800527  6.0556812622447822 12.1153157306886818
  8.0763588593358175  8.0752076920543736  0.0016511766889409
  8.0741400108731707 10.0933419187248710  2.0151482274770482
 10.0981743483814252  8.0727937160069310  2.0221690302701227
 10.0838816090049654 10.0954364182559733 -0.0118222650024684
  8.0724855816875962  8.0729363203537368  4.0360669359780319
  8.0747392064209382 10.0955756906436598  6.0587436512567976
 10.0822612056357883  8.0708751117842024  6.0547523521799356
 10.0810440137511250 10.0918944286780441  4.0336205029739398
  8.0751731450390913  8.0760407761522206  8.0786861907778249
  8.0748932316428697 10.0954185416730020 10.0999295125941035
 10.0876814092483897  8.0756945143199506 10.1014623382019817
 10.0842454874967409 10.0974440110461554  8.0773937574929189
  8.0738284128113964  8.0750713908754381 12.1148154228665419
  8.0707280107128607 10.0960797386988084 14.1329792350039796
 10.0933235020170233  8.0779030859720535 14.1327887461766544
 10.0891715131121540 10.0936821699847581 12.1149620135078049
  8.0719924390331226 12.1038458151346475  0.0028353803788136
  8.0712000711893648 14.1309830999880539  2.0290751228197967
 10.0891080484851514 12.1092778479584133  2.0266692252158820
 10.0838630770626736 14.1044803023610257  0.0286993851323776
  8.0742071114701215 12.1158234558394220  4.0378420885776736
  8.0724151430273050 14.1363259957182024  6.0581633120228906
 10.0818602212494977 12.1168221662071307  6.0600392313716336
 10.0876274826687453 14.1403940740745284  4.0383216348551327
  8.0703049841395167 12.1187709113669495  8.0793885068780114
  8.0803637675164666 14.1365845735929963 10.0985174352168539
 10.0965088089445842 12.1154526486832808 10.0970983076498264
 10.0964963833998151 14.1330630147817651  8.0783248119738875
  8.0832314269998555 12.1163837269096142 12.1101409586989135
  8.0484653826459098 14.1042157297692707 14.1449691425096891
 10.0951056921774001 12.1152334044181398 14.1327837093123048
 10.1032183906886974 14.1512673467110215 12.1214652598451273
 12.1066517413831836  0.0082970290944626 -0.0178467889099439
 12.1148847944997922  2.0187849598631669  2.0155866946636869
 14.1328150468811806 -0.0014551907055790  2.0120260748315340
 14.1621817693080381  2.0313077676049529  0.0279733017827115
 12.1010492742325919  0.0137572737731842  4.0359838682470475
 12.1125836157190445  2.0205825293470032  6.0558219424986843
 14.1292190107665956  0.0113704706053777  6.0615379396090221
 14.1328056950884662  2.0192172343299957  4.0381527320805608
 12.1107127391518024  0.0026512487999315  8.0807892334088649
 12.1061306378155411  2.0100285717239137 10.1139695252991473
 14.1617082749608567 -0.0098168396722993 10.0708218784433754
 14.1282792014955554  2.0222083603984067  8.0808287422318372
 12.1864090151545490 -0.0731750863299040 12.0407314798423126
 12.1863110425509866  2.0915942752003582 14.2054607831129047
 14.1156479863119930  0.0100723044542121 14.1246215093623046
 14.1151820393561032  2.0094039817366718 12.1255556341873003
 12.1261324375523891  4.0664576336044167  0.0296417732099958
 12.1057815291397493  6.0615511709793068  2.0345234656250804
 14.1355666675984164  4.0435872949539498  2.0313273184962628
 14.1324190309361324  6.0593566756909922  0.0011151834967627
 12.1178114982021796  4.0406105299660933  4.0355975990367412
 12.0829184896220916  6.0211816141568058  6.0680630971000671
 14.1328061963302982  4.0369900512077104  6.0590326708276754
 14.1466137340920941  6.0685954220051030  4.0449816143480781
 12.1101725741730846  4.0221236698196172  8.0832582369510160
 12.1119112894105339  6.0541986858168455 10.1052282462535672
 14.1295606778108738  4.0223599099260596 10.1110941448327090
 14.1228667303674182  6.0209702106466674  8.1082823334628564
 12.1057252096790897  4.0202187625130978 12.1228076340748476
 12.1142249819219057  6.0538822246890254 14.1343561049739925
 14.1618762193706669  4.0645047359741797 14.1466839965436275
 14.1284087197316310  6.0495611920166050 12.1135957979383395
 12.1072095281223220  8.0697570147445710 -0.0018532248233802
 12.0843761073784037 10.1066053162320468  1.9827356664354161
 14.1146968335653273  8.0516454823354309  2.0214200592051492
 14.1045187144485631 10.0832104954469841 -0.0295726491528561
 12.1342394165058352  8.0930004842763665  4.0535229150071723
 12.0762281772685292 10.0835403548217517  6.0429157726105780
 14.0679823271311406  7.9899072756847165  6.1222333406399576
 14.0869502210000128 10.1597395247702398  3.9496052647074009
 12.0992020221474164  8.0800130706096649  8.0912256461429308
 12.1140447556581883 10.0954343381604286 10.1048811853060503
 14.1341325704912073  8.0679115190058734 10.1076829073149206
 14.1458068367186591 10.0832122533780808  8.1126882771168844
 12.1101544079623942  8.0756439812866461 12.1154840456417539
 12.1031222916373942 10.0951620933924175 14.1232545083584302
 14.1300950893117516  8.0723246603683929 14.1229141620025267
 14.1326094750423241 10.0955872579327597 12.1151078889648751
 12.1130152371387645 12.1223929429971076 -0.0112341547520910
 12.1138542722791271 14.1400534224176173  2.0144930040541524
 14.1426081802983123 12.1383965485952068  1.9925182922015421
 14.1330625446393032 14.1454769726097958 -0.0116283377652007
 12.0997176226896173 12.1303207986093291  4.0412811187342061
 12.1022058156982606 14.1491150724948778  6.0617504337811843
 14.1125189014909971 12.1628935613105735  6.0758574037792057
 14.1058278953789902 14.1730803406727155  4.0417804532634571
 12.1196870219891686 12.0885427922385986  8.0612019298826585
 12.1261216199648452 14.1001414354626871 10.0636437940959151
 14.1356493230966276 12.1058264048208102 10.1043092422002481
 14.1324143469404433 14.1459316424858468  8.0772107504918882
 12.1116910030652125 12.1188136568930389 12.1180874640541312
 12.1071801670360237 14.1516003127631738 14.1243615343266704
 14.1330614834107742 12.1180316209210801 14.1375979998206152
 14.1620545811101852 14.1069219504802490 12.1048353246297680
  1.0233378610453114 11.1209280848756844  3.0147711657158283
 11.1040555971428105  1.0095093701001014 13.1233109427418793
 15.1961711012829248  8.9962442786008552  4.9944211722043184
 14.0249130408693148 10.2058379326853252  6.1648721680436758
