Al 
 1.0000000000000000
     4.0380368121668431   -0.0000000064649260    0.0000000149565679
    -0.0000000064649254    4.0380368018126243   -0.0000000040374688
     0.0000000149565677   -0.0000000040374690    4.0380368085189149
 Al 
   4
Cartesian
  0.0000000065186460 -0.0000000002608984  0.0000000012482743
  0.0000000005100210  2.0190184005466074  2.0190184021270787
  2.0190184085424185 -0.0000000076421342  2.0190184121631005
  2.0190184050873996  2.0190183986666543  0.0000000038995604
