Cu  H 
 1.0000000000000000
    14.5804395675999992    0.0000000000000000    0.0000000000000000
     0.0000000000000000   14.5804395675999992    0.0000000000000000
     0.0000000000000000    0.0000000000000000   14.5804395675999992
 Cu  H  
 256   4
Cartesian
  0.0048004401795878 -0.0074092228410655  0.0008107338240080
 -0.0071165505334654  1.8102529110697461  1.8351709058270025
  1.8208988612380959 -0.0013967130283278  1.8296768285535210
  1.8147059317158234  1.8046654776727298 -0.0075353280788900
  0.0040962296927277 -0.0065308089672181  3.6579923455811274
 -0.0006976474436116  1.8204690926603186  5.4734458395442118
  1.8225660150208485 -0.0035259953014508  5.4729672577440844
  1.8215611192781025  1.8102749331898029  3.6625196092679917
  0.0040255037289399 -0.0020024527756347  7.2877220913116991
  0.0030950822915462  1.8243941418494209  9.1056779735789508
  1.8254115729503941 -0.0016148338648833  9.1060493849803539
  1.8221236063842901  1.8241237574377349  7.2871092677097389
  0.0068505905663003 -0.0012867883924462 10.9231664358039726
  0.0012629967316597  1.8213412814374859 12.7458758535911834
  1.8233499265549646 -0.0062908956362265 12.7504352815867961
  1.8248472704201180  1.8185068153689812 10.9269160675024484
 -0.0134399712664624  3.6457885966024688 -0.0071893185670078
 -0.0110654938078145  5.4815065677147352  1.8370312025708442
  1.7692349997680872  3.5924743989149972  1.8812978817006951
  1.7705501946231299  5.5221927968189224 -0.0541747331996351
 -0.0064745124782434  3.6483433382022628  3.6672752270781812
 -0.0018555206115339  5.4721797151410660  5.4758691447414938
  1.8219410083574921  3.6454251738008092  5.4701796412825976
  1.8162783394870941  5.4784230959616460  3.6692062206589058
  0.0037400156046178  3.6477855835638442  7.2870024140927985
  0.0044415235276038  5.4714329933660935  9.1069751750280119
  1.8238809902432385  3.6478221556769390  9.1093973526768917
  1.8236809205194064  5.4694894695259002  7.2864472078645637
  0.0022094266028667  3.6480245883071669 10.9210518368323086
 -0.0039746383569287  5.4759073828790239 12.7401483081856792
  1.8152991078637271  3.6387443090608844 12.7354479608655886
  1.8212389582732404  5.4734159474041331 10.9296574922958740
 -0.0082403916068116  7.3024158934801280  0.0014627873298896
  0.0011378788934728  9.1137268123998325  1.8311216285595702
  1.8169825328954261  7.3100887339159408  1.8346658169345282
  1.8201994859592978  9.1122147123896831 -0.0003527657853690
  0.0006638110869233  7.2945211027640191  3.6553254810175573
  0.0017335216563534  9.1131405922995405  5.4722817606807661
  1.8218792232057428  7.2963688607970036  5.4753967574061111
  1.8225425738278058  9.1168079569283975  3.6552572720331216
  0.0022620640744310  7.2919575441135773  7.2897004324484627
  0.0027260112920151  9.1123026774704883  9.1058960182730520
  1.8233088937950550  7.2911004482775201  9.1079269595707242
  1.8225626187231287  9.1127674144002615  7.2898091418052680
  0.0013842924230877  7.2952969000456402 10.9251086382526417
  0.0042068587222790  9.1106775023535782 12.7517468632566153
  1.8236454502149417  7.3049165374973866 12.7428715725044910
  1.8228003587442083  9.1141557589550999 10.9282010604050832
  0.0021596392245860 10.9295957626623697  0.0037932346418030
  0.0123663028836927 12.7524630688279270  1.8338506333133515
  1.8240293631250997 10.9297806171599312  1.8250755876304423
  1.8204119837198094 12.7569339057188724  0.0014081635606590
  0.0053902577693545 10.9322615056986141  3.6531672363789234
  0.0034467675137323 12.7534703445225528  5.4731521016602906
  1.8232101310081079 10.9339680948755813  5.4714543078825786
  1.8252219890703880 12.7547255750914594  3.6508276829036155
  0.0026207805726326 10.9329020025500210  7.2874388857867940
  0.0060656821218516 12.7552801123275152  9.1045959451585379
  1.8232195587895343 10.9324404413696943  9.1065335122428444
  1.8225333479395502 12.7548097629108668  7.2877705932900056
  0.0085018339821124 10.9303855521007094 10.9243581551887079
  0.0057335937949697 12.7519341708242653 12.7519572579816582
  1.8206850329590922 10.9312261589718549 12.7576568555056706
  1.8242667280853344 12.7539675347726735 10.9302233179617048
  3.6403726764520927 -0.0029727569857603  0.0044783833398164
  3.6485318972510896  1.8057250318413467  1.8369865682626279
  5.4617304484592664 -0.0058013241860955  1.8368539886092230
  5.4641879825960658  1.8131759867402391  0.0159111065153953
  3.6431143502416341 -0.0060135299184329  3.6568021830041140
  3.6437825691246970  1.8185408277502626  5.4738528535495883
  5.4651549308357614 -0.0017478704713389  5.4737067773394292
  5.4673608840004988  1.8207713964407783  3.6547890485457848
  3.6408539522073169 -0.0026576539928655  7.2872014227419966
  3.6388755186916448  1.8253337221222818  9.1043596507215980
  5.4504888717890347 -0.0025591046600317  9.0926693935892473
  5.4610554094940849  1.8246199667770997  7.2856192068179606
  3.6443724545791585 -0.0049245947765036 10.9275929837985721
  3.6445129999838315  1.8138035753945456 12.7460070736606799
  5.4451137596675849 -0.0088558559445192 12.7609451627150836
  5.4494241732104598  1.8286235803489259 10.9203924834402546
  3.6896401994260182  3.5992434259598096 -0.0474286299575015
  3.6979782269002079  5.5257538387775647  1.8828226697686330
  5.4802209092413241  3.6431206645338827  1.8391814031942182
  5.4796452395760999  5.4803781258149353 -0.0038551256409050
  3.6505576910170787  3.6394781641811034  3.6694141848089084
  3.6454632563662503  5.4720723219109120  5.4694696263396851
  5.4691017516487195  3.6456092594284404  5.4752596537409692
  5.4772335969741830  5.4728714641686897  3.6649970787406159
  3.6422789901017762  3.6484194238247492  7.2858932135776691
  3.6418674452863939  5.4699461704772698  9.1092690517639809
  5.4609488625093956  3.6499960372181688  9.1049061759415792
  5.4634997900452271  5.4703735965018856  7.2874258981082836
  3.6406760406058352  3.6498166975455062 10.9291962129306679
  3.6486429396161575  5.4798794004857081 12.7370414616564371
  5.4638090400955877  3.6615782856200303 12.7435125934983713
  5.4633266884166911  5.4762370441956127 10.9231019813708361
  3.6491522439595370  7.3098621382137035 -0.0063432457489482
  3.6440099867733537  9.1114508182607477  1.8282584573099430
  5.4765620661353989  7.3063285140371876  1.8298125599709063
  5.4652855629447350  9.1108934342512171  0.0013389421050197
  3.6447287585727808  7.3051955489853304  3.6633903908736976
  3.6441234701369387  9.1143767544974477  5.4724975424485249
  5.4676685604273549  7.2948000919813065  5.4739419994702949
  5.4668135978810328  9.1149684122423622  3.6538990593163323
  3.6430344306237510  7.2906313680292421  7.2880120831905257
  3.6418066273818832  9.1120798445554350  9.1060490256811857
  5.4637217906145938  7.2915851950998816  9.1054632393912200
  5.4646063895393304  9.1120748320039624  7.2878629403676856
  3.6431087077004345  7.2969292825162446 10.9252168333906763
  3.6441125960434575  9.1162775724617067 12.7515750495882116
  5.4656010184375559  7.2933553498464354 12.7510959613287262
  5.4631796756685054  9.1108032933204814 10.9270668414621888
  3.6437579326723921 10.9305033243544152  0.0025598707779784
  3.6416552355168501 12.7561567161315956  1.8264104143835329
  5.4575705137654120 10.9290555232326803  1.8322778443787093
  5.4607815879753936 12.7541434562377187  0.0077400796261548
  3.6417635513196145 10.9322317281049006  3.6499998064608477
  3.6421134467977070 12.7539191783384833  5.4707447409368219
  5.4641043521070847 10.9328186160943339  5.4715311092429815
  5.4616506622139989 12.7541020208203726  3.6542139769918189
  3.6418454509052141 10.9322650332179343  7.2875180886419795
  3.6388519644620572 12.7522945040368398  9.1040330695626253
  5.4602569448437821 10.9285413361697366  9.1029155974736984
  5.4614379644328652 12.7524092481604878  7.2840836903264208
  3.6409452038410945 10.9314956997023565 10.9297165662468316
  3.6405857490399671 12.7499981132739002 12.7592390085794758
  5.4592874938720497 10.9259920342201209 12.7558928501261288
  5.4456049513781384 12.7410710057709391 10.9236767046387282
  7.2700217803031357 -0.0047356881586838  0.0218853584607044
  7.2852679683800359  1.8232371178167575  1.8381845416370410
  9.1030795273022225 -0.0049579637436316  1.8512362244705700
  9.0716939314785670  1.8324845963109391  0.0272818532897971
  7.2833265257062987 -0.0014781005574455  3.6567591759033085
  7.2908220068171774  1.8222132934779343  5.4746030741470566
  9.1121905264426957 -0.0015049682538761  5.4721270442580385
  9.1074254677956645  1.8246477396010932  3.6525594843586964
  7.2873714800103748 -0.0030800632787120  7.2890944511188520
  7.2824443531521075  1.8310292547605327  9.0892365160632629
  9.1202652907111368 -0.0052972436238467  9.0857240407954389
  9.1152824140677282  1.8255215963455211  7.2889232575804899
  7.2284252976802401 -0.0634273993671445 10.8697045116519160
  7.2359473338930504  1.8772404721712692 12.8049582206523365
  9.1391542854994654 -0.0418692979265004 12.7831922418841231
  9.1681693146480168  1.8842948600612190 10.8708884600655669
  7.2846243264989621  3.6634529381273366  0.0124394359806447
  7.2825595546336190  5.4775058388099094  1.8329617130003539
  9.0997150711160941  3.6657066545115167  1.8436840369963297
  9.1077649583737017  5.4794993630239617  0.0065783654547667
  7.2891444103913869  3.6478753886417699  3.6601053878001077
  7.2901964184158476  5.4724798185123023  5.4729634673560987
  9.1136227143749782  3.6467337535740212  5.4717915855646897
  9.1104379370208477  5.4740257395820562  3.6561226818405586
  7.2881181183851336  3.6515548150868327  7.2854052929380462
  7.2872899893265428  5.4747401688693893  9.1002518298435078
  9.1144381899922529  3.6623750117567764  9.0934326613913310
  9.1141775115172265  5.4725487156609303  7.2858427401122077
  7.2797593840349863  3.6679708706763141 10.9175787040740389
  7.2876713584745714  5.4765352575598980 12.7510398768271749
  9.1090707833584617  3.6796950106620199 12.7529627369122522
  9.1141700199123328  5.4747254541894756 10.9240654705310689
  7.2888884931195514  7.2914750191825517  0.0008102556897458
  7.2878057310873174  9.1104290104298329  1.8319785848529442
  9.1105172225877968  7.2869778473264537  1.8331585235671304
  9.1058996266345602  9.0927184290281318  0.0092842205961673
  7.2904520880450878  7.2951099459394344  3.6548611457003846
  7.2901157641078855  9.1132024883705327  5.4722724688985753
  9.1139394603700694  7.2926363366644180  5.4726526060469824
  9.1125553696113872  9.1081446929253058  3.6552741432113898
  7.2892437452364138  7.2925428233695584  7.2877844655354656
  7.2861888704439686  9.1099754386525618  9.1052486695590176
  9.1119523442088912  7.2901528477335980  9.1051732496504467
  9.1135642811594373  9.1115996652985078  7.2881006451940902
  7.2867004793255514  7.2882625969335004 10.9265702732887924
  7.2772140944064656  9.1018887088442604 12.7531174485348195
  9.1109577802885813  7.2900914240417318 12.7528849404950861
  9.1111938495805251  9.1011733130838213 10.9184343120587570
  7.2692988917569874 10.9210856341924281  0.0138440192429552
  7.2718951753463683 12.7456552706442707  1.8461936052067676
  9.1058034980971598 10.9235137604039316  1.8480151978207120
  9.0580187692029028 12.7930954497080851  0.0610326242826920
  7.2840852515823915 10.9305049434064045  3.6571397581534448
  7.2890851333014997 12.7551302926606773  5.4718098645280886
  9.1140548180323258 10.9318967971077541  5.4678027537623102
  9.1089815919589086 12.7531608306906143  3.6541349239410921
  7.2886671587316014 10.9304611559722566  7.2863220031550284
  7.2822018505513126 12.7416842797103449  9.0883282449797775
  9.1125882536807534 10.9247827908783943  9.1025845997486083
  9.1152414666845498 12.7499974721317830  7.2860561253179581
  7.2745491202727832 10.9311971747002090 10.9165870762169916
  7.2575538688899748 12.7380441020951558 12.7550196433328331
  9.0607417650408539 10.8800892755434511 12.7032317703062798
  9.1118540590680279 12.7388873240019844 10.8990015570545697
 10.9512819435005877 -0.0337489440477394  0.0172565565864654
 10.9428448317036136  1.8279303340377473  1.8792512296093848
 12.7731900709456649 -0.0143337572384863  1.8436754994354161
 12.8072845574784857  1.8203617547755733  0.0050229624728734
 10.9365682760831024 -0.0026152586241311  3.6578191116033079
 10.9350506326957930  1.8237559118506743  5.4709635071678777
 12.7597548701324506 -0.0032014124190226  5.4713797284444778
 12.7634136616984648  1.8210419164263121  3.6577255909772930
 10.9412055353960653 -0.0032964015061989  7.2841357019407198
 10.9518954670708162  1.8259194234142802  9.0941517612053069
 12.7681806082290219 -0.0006728193058160  9.0999332299945550
 12.7617756952838697  1.8245735111885442  7.2859981673530783
 10.9574042887304977 -0.0022339331223834 10.9101446591096884
 10.9610450198579485  1.8317197803320875 12.7159256814020587
 12.7833483704620274 -0.0051931572440728 12.7434650057274546
 12.7681571726722254  1.8272491455866799 10.9215547951404375
 10.9426411807933039  3.6971983436513978  0.0052434846019767
 10.9397317159694829  5.4740871909105566  1.8322436101665767
 12.7740393234076617  3.6592009973363639  1.8414775890897030
 12.7670086653540320  5.4769135630679848  0.0006934158996740
 10.9371272314877377  3.6538508498381601  3.6535712588530220
 10.9358919018684695  5.4700936733140315  5.4709072144393147
 12.7588758638098145  3.6468858816399603  5.4716191011237010
 12.7577201719267759  5.4747871708264508  3.6595832011954941
 10.9393658614058289  3.6499177988136502  7.2852776535341492
 10.9394611168817590  5.4725822247518590  9.1031523154249392
 12.7635487252773547  3.6512775939335107  9.1028691069042846
 12.7606479620476936  5.4716006220011320  7.2882021046306305
 10.9494807059282948  3.6663676495349846 10.9266681653565687
 10.9415424419313094  5.4803796912240070 12.7537407146952262
 12.7726973671780595  3.6635137101683393 12.7400433016490631
 12.7625162090415731  5.4770901142840023 10.9228057511592116
 10.9389188423038934  7.2910601644680293  0.0037203613627507
 10.9368926978481138  9.0985130559374507  1.8408527675210331
 12.7588758156008151  7.2929559582589105  1.8317971031779465
 12.7714545462991129  9.1000652142932736  0.0022093586859538
 10.9367280043955208  7.2893472014158771  3.6523462649217651
 10.9366495899097966  9.1130443865853259  5.4692793545022242
 12.7592079997431629  7.2928398857414471  5.4727176669096504
 12.7618592077947568  9.1101068701362653  3.6546698213572366
 10.9368986440094869  7.2917953085993057  7.2864130338251174
 10.9378824531352059  9.1062538331725182  9.1033472152301069
 12.7608843972360244  7.2930803421184800  9.1049342925367860
 12.7596926387911669  9.1123592219763960  7.2874580760526069
 10.9366802925647324  7.2868048210408380 10.9252268782314612
 10.9435215706222095  9.0927856422631486 12.7473503059206070
 12.7632241250256655  7.2909871826736126 12.7510540844343456
 12.7627994151779962  9.1091294630951225 10.9256335348892275
 10.9943235337097978 10.8757392537813420  0.0608572071628158
 10.9463654830956720 12.7578195717700087  1.8536947226908911
 12.7738430960616522 10.9316031788941146  1.8417800747754407
 12.7853638748060785 12.7566350160073068  0.0116125299299634
 10.9386853925638512 10.9301750955216157  3.6498027676780418
 10.9357277113648585 12.7547130231015817  5.4669950436590948
 12.7590238933584743 10.9322194237354644  5.4706071530434084
 12.7664372862666422 12.7513011026492933  3.6599407481823198
 10.9371410104365090 10.9327896227441030  7.2896693400966202
 10.9425805325031273 12.7542287541274870  9.1049550409505340
 12.7656969438230590 10.9297483574983634  9.1012120907431893
 12.7602316060674355 12.7538238249764362  7.2880047296386019
 10.9487999699468173 10.9199794112703277 10.9103478428952805
 10.9955829108403567 12.7940355922963231 12.6995715654919206
 12.7796630734312977 10.9239284003723043 12.7481446663753797
 12.7791352638975777 12.7469846593971070 10.9127972858253290
  2.7285744930704579  4.5657880754481690  0.9235738009079923
  8.1776182016695209  0.9277614053348824 11.8067987818350755
 10.0337471143281647 11.8233881102691374 13.6761462190144076
 10.9323994172607311  1.8519785801646957  0.0025879239847339
