Cr Co Ni  H 
 1.0000000000000000
    14.1120004653999995    0.0000000000000000    0.0000000000000000
     0.0000000000000000   14.1120004653999995    0.0000000000000000
     0.0000000000000000    0.0000000000000000   32.0000000000000000
 Cr  Co  Ni  H  
  85  86  85   4
Selective dynamics
Cartesian
 10.6694827061272886  3.9187738437725024  7.6724088594405542   T   T   T
  8.8200002909999995  3.5280001159999999  5.2920001750000001   F   F   F
 10.5840003490000001  5.2920001750000001  5.2920001750000001   F   F   F
  0.0000000000000000  7.0560002329999998  0.0000000000000000   F   F   F
  8.4958473884859878  5.7443430032248646  7.6117831388162589   T   T   T
 12.3188194401849085  1.8296518197583589  7.4723623290621894   T   T   T
  5.2920001750000001  1.7640000579999999  0.0000000000000000   F   F   F
  3.2829818087993106  3.3071784596748381 11.5185615563687964   T   T   T
  5.2920001750000001  8.8200002909999995  0.0000000000000000   F   F   F
 11.2972105499389723  1.7279835068606464 14.4314128840188847   T   T   T
  6.6186429590464693  5.7138972888454811  9.8621513050722882   T   T   T
 11.2920353869432155  5.4886650675532929  9.9799019771593418   T   T   T
  8.8200002909999995 12.3480004070000007  3.5280001159999999   F   F   F
  6.7532787003638166  3.2329155768647140 11.8081521471522990   T   T   T
  8.8200002909999995 10.5840003490000001  1.7640000579999999   F   F   F
  9.0780956500315355  1.7245018512724588  7.6056907771407740   T   T   T
  3.5280001159999999  7.0560002329999998  0.0000000000000000   F   F   F
  8.8200002909999995  5.2920001750000001  3.5280001159999999   F   F   F
  0.2714044235100309  1.6330865274929454  9.5601272188267039   T   T   T
 10.2090928494330999 10.5161849093856397  7.4087357052083567   T   T   T
  7.0560002329999998  7.0560002329999998  3.5280001159999999   F   F   F
  7.0560002329999998  0.0000000000000000  0.0000000000000000   F   F   F
  3.5280001159999999  1.7640000579999999  5.2920001750000001   F   F   F
  4.7237159200797123 -0.0691028312332171 14.5632648258761357   T   T   T
 10.8988376038187447  7.1080012928441985  7.5662426204406721   T   T   T
 10.5840003490000001  7.0560002329999998  3.5280001159999999   F   F   F
 12.3480004070000007 10.5840003490000001  5.2920001750000001   F   F   F
 -0.0230759128729041  6.0100168275323433 14.3503757895116930   T   T   T
  6.8912656506436214  0.0485640286356085 11.7329879744621657   T   T   T
 12.3480004070000007 12.3480004070000007  3.5280001159999999   F   F   F
 12.3480004070000007  1.7640000579999999  0.0000000000000000   F   F   F
  5.2920001750000001  7.0560002329999998  5.2920001750000001   F   F   F
  7.0560002329999998  1.7640000579999999  5.2920001750000001   F   F   F
  5.2920001750000001  1.7640000579999999  3.5280001159999999   F   F   F
 12.1325824875146697 12.1994415448751354 11.3890014667676507   T   T   T
  3.5280001159999999  8.8200002909999995  1.7640000579999999   F   F   F
  8.8200002909999995  8.8200002909999995  3.5280001159999999   F   F   F
 10.5840003490000001  0.0000000000000000  0.0000000000000000   F   F   F
  5.2920001750000001  5.2920001750000001  0.0000000000000000   F   F   F
  8.9087094683245507 -0.1369264946940952  9.6106232178003737   T   T   T
  7.0560002329999998  1.7640000579999999  1.7640000579999999   F   F   F
  3.5280001159999999 10.5840003490000001  3.5280001159999999   F   F   F
  6.9404541891720699  1.7316612944403780 14.3082959170186808   T   T   T
 12.3480004070000007  0.0000000000000000  5.2920001750000001   F   F   F
  3.5280001159999999  3.5280001159999999  3.5280001159999999   F   F   F
  7.0560002329999998  5.2920001750000001  5.2920001750000001   F   F   F
  7.0560002329999998 10.5840003490000001  3.5280001159999999   F   F   F
  8.8200002909999995  0.0000000000000000  5.2920001750000001   F   F   F
  8.8200002909999995  3.5280001159999999  1.7640000579999999   F   F   F
  4.0794306992127822 12.2976893776160914  9.7025271888554450   T   T   T
  8.7744017775723542  3.7914344541479834  9.6600853144038723   T   T   T
  3.6218280519052697  5.3518573421555988  9.5930501397685219   T   T   T
  5.2920001750000001  5.2920001750000001  3.5280001159999999   F   F   F
  1.7640000579999999  7.0560002329999998  5.2920001750000001   F   F   F
  7.4265925042727483  4.8860250474169762 14.3718890604976206   T   T   T
  3.5280001159999999  5.2920001750000001  5.2920001750000001   F   F   F
 -0.1437200245291912 -0.3297883284933392  7.5961323432830419   T   T   T
  0.0000000000000000  0.0000000000000000  0.0000000000000000   F   F   F
  0.1356490146127636  1.3207541077289473 14.4290708271002472   T   T   T
  7.4176486755155144 12.8742944292580876 14.4119396378733278   T   T   T
  9.0946747692532757  5.2093613845183642 12.0642128355324907   T   T   T
  1.7640000579999999  8.8200002909999995  3.5280001159999999   F   F   F
  5.2920001750000001 12.3480004070000007  3.5280001159999999   F   F   F
  1.7640000579999999  1.7640000579999999  3.5280001159999999   F   F   F
  1.7640000579999999  3.5280001159999999  1.7640000579999999   F   F   F
 12.3480004070000007  0.0000000000000000  1.7640000579999999   F   F   F
  7.2685888634756752 10.4194434202455799  7.3944534347621271   T   T   T
 10.5840003490000001  1.7640000579999999  5.2920001750000001   F   F   F
  6.7272935598876726  0.1753382115737852  7.5620346906312275   T   T   T
  1.7640000579999999  0.0000000000000000  1.7640000579999999   F   F   F
 10.5840003490000001  1.7640000579999999  1.7640000579999999   F   F   F
  5.2311355817117597  5.0628466373757588  7.4326962492557342   T   T   T
  0.2115141544348113  9.1572981284499679  9.5144443923227655   T   T   T
  7.0560002329999998  5.2920001750000001  1.7640000579999999   F   F   F
  1.7640000579999999 12.3480004070000007  3.5280001159999999   F   F   F
  8.8200002909999995  1.7640000579999999  0.0000000000000000   F   F   F
 10.2947769287974236 10.3095598478156862 11.5072780116545381   T   T   T
 10.5840003490000001  7.0560002329999998  0.0000000000000000   F   F   F
  0.0000000000000000  1.7640000579999999  5.2920001750000001   F   F   F
 10.5840003490000001 12.3480004070000007  1.7640000579999999   F   F   F
  1.7640000579999999 10.5840003490000001  5.2920001750000001   F   F   F
  5.5319596392235395 10.8402242743146022 13.9476328849390416   T   T   T
  0.3754634838032849 -0.5707872871550920 11.5268363259531856   T   T   T
  3.7097481152291532 -0.0185697328341589  7.5246136494627596   T   T   T
 11.1710727524665927  3.3239436916603902 11.8969263195156358   T   T   T
  1.9218679922076343  7.3980798682611226 13.2291838385855591   T   T   T
  5.2920001750000001  0.0000000000000000  5.2920001750000001   F   F   F
  0.2248461037628350 10.7346229275557405 11.7935336853738306   T   T   T
  3.5280001159999999  1.7640000579999999  1.7640000579999999   F   F   F
  3.7288550107415284  7.2846632248388978 11.5279896343364179   T   T   T
  1.8754440620717610  8.8299588642125766  7.3268079570144371   T   T   T
 12.3480004070000007  7.0560002329999998  5.2920001750000001   F   F   F
  0.4439374554309522 12.0967150499177603 13.8082411011645405   T   T   T
  9.1939054267048217  0.3705555177498396 13.4440667527121995   T   T   T
 12.4046965475324296 10.8302608533992988 13.6170801610935968   T   T   T
  4.9840090890114572  3.6487644771693826 13.8516612485379618   T   T   T
 12.7440618343117968  5.2622242774293548  7.2436165503352399   T   T   T
  3.5280001159999999  8.8200002909999995  5.2920001750000001   F   F   F
 10.2903846614730323 12.1708519495401628 13.6274215405008245   T   T   T
  0.0000000000000000  0.0000000000000000  3.5280001159999999   F   F   F
  0.0000000000000000  5.2920001750000001  1.7640000579999999   F   F   F
  1.9046249341780277  7.1779690117527117  9.3683363664293626   T   T   T
  7.3895541191204233  8.5233602946667091  9.4289045182498601   T   T   T
  6.6748024090818152 12.5105397714054849  9.3721273199377659   T   T   T
 10.7021152396266679  4.9566338103946350 14.1353982726210354   T   T   T
  1.7640000579999999  0.0000000000000000  5.2920001750000001   F   F   F
  7.0560002329999998  3.5280001159999999  0.0000000000000000   F   F   F
  5.2920001750000001  7.0560002329999998  1.7640000579999999   F   F   F
  3.5478296963185945  7.1224744027328146  7.3881868292481592   T   T   T
 10.5840003490000001  3.5280001159999999  3.5280001159999999   F   F   F
  1.7640000579999999  1.7640000579999999  0.0000000000000000   F   F   F
  8.3828382674468020  8.5993157799613424 11.7288283683875747   T   T   T
 12.3480004070000007  5.2920001750000001  0.0000000000000000   F   F   F
  0.0000000000000000 10.5840003490000001  0.0000000000000000   F   F   F
  8.8200002909999995  7.0560002329999998  1.7640000579999999   F   F   F
  3.0055158583815289  0.3428029333229483 11.2732368047888443   T   T   T
  0.0000000000000000  8.8200002909999995  5.2920001750000001   F   F   F
  4.0533955496067566 10.2994100097546788 11.5866551815706771   T   T   T
  5.1493159913920827  2.1898813675440949  7.3689872908835889   T   T   T
 10.7291041962695743 -0.3620853887617777  7.4738543662103440   T   T   T
  8.8868371247016373 12.4712892631533308 11.7203466352154173   T   T   T
  5.3787088172489526 12.0978938480108322  7.1879168696225220   T   T   T
  0.0000000000000000 10.5840003490000001  3.5280001159999999   F   F   F
  0.0000000000000000 12.3480004070000007  5.2920001750000001   F   F   F
  8.3681467876130995 10.8497541820841121  9.7881699850911179   T   T   T
  5.2920001750000001  3.5280001159999999  5.2920001750000001   F   F   F
  5.2920001750000001 10.5840003490000001  1.7640000579999999   F   F   F
 12.3480004070000007 10.5840003490000001  1.7640000579999999   F   F   F
  0.0000000000000000  5.2920001750000001  5.2920001750000001   F   F   F
  7.1871914156095409  3.4419753736870486  7.4063252986807884   T   T   T
  8.8200002909999995  7.0560002329999998  5.2920001750000001   F   F   F
  9.1356517557282793  7.1572424583017815 13.7890011452637005   T   T   T
  7.0560002329999998 12.3480004070000007  1.7640000579999999   F   F   F
  0.0000000000000000  8.8200002909999995  1.7640000579999999   F   F   F
  3.1298176258468300  5.3120805689525374 13.4811157606422505   T   T   T
  1.7640000579999999 12.3480004070000007  0.0000000000000000   F   F   F
  3.5280001159999999  7.0560002329999998  3.5280001159999999   F   F   F
  1.2439505146306493  3.8144616485115184 13.4431812587724142   T   T   T
  8.8200002909999995  8.8200002909999995  0.0000000000000000   F   F   F
  1.2365409088724537  1.8484675839358105 12.0450577999009507   T   T   T
  8.9646178373732681  6.7866823478701637 10.0176910721337862   T   T   T
 -0.1882755165885916  8.7693893053506216 13.7238177537522184   T   T   T
 10.3456322739232576  9.3708538675577611 13.8193162876178182   T   T   T
 10.5840003490000001  3.5280001159999999  0.0000000000000000   F   F   F
  8.9480699834893276  1.8116886692069201 11.4252676007792644   T   T   T
 10.8221336905288137  1.9192253744308934  9.7085431036746765   T   T   T
  4.1601657276307824  8.6351620225541179 13.5200092111681940   T   T   T
  3.5280001159999999  3.5280001159999999  0.0000000000000000   F   F   F
  8.8200002909999995  5.2920001750000001  0.0000000000000000   F   F   F
  5.0690511269845624  0.7279345405728069  9.8286301776053477   T   T   T
  2.9775445896727373  2.1075583013056631 13.8984801746260018   T   T   T
  0.2179285019688194 10.7504539620308623  7.3585764891233216   T   T   T
  3.5280001159999999 12.3480004070000007  1.7640000579999999   F   F   F
  5.2920001750000001 10.5840003490000001  5.2920001750000001   F   F   F
  3.5280001159999999  5.2920001750000001  1.7640000579999999   F   F   F
  8.2493384515777084 10.5674960348085207 13.2212417694568583   T   T   T
 12.3480004070000007  8.8200002909999995  3.5280001159999999   F   F   F
  1.6794660154313543  5.4699707854755646  7.4291972568137679   T   T   T
  9.1503790335162307  2.9813344194988312 13.6024255479246357   T   T   T
  0.0000000000000000  7.0560002329999998  3.5280001159999999   F   F   F
  5.2153808281197245  3.2686015383256457  9.5134745510950545   T   T   T
  1.7640000579999999  7.0560002329999998  1.7640000579999999   F   F   F
  5.2920001750000001  8.8200002909999995  3.5280001159999999   F   F   F
  1.7640000579999999  8.8200002909999995  0.0000000000000000   F   F   F
  2.3399368178980393 11.9328389717662731 11.7336934640939177   T   T   T
 12.9192499009754957  1.4211482461452285 11.8667793036687765   T   T   T
 12.4230012117958957 -0.5486842410052560 13.5516049244104266   T   T   T
  6.9304422489690589  8.5001756572194775 13.8563268581813190   T   T   T
 10.5840003490000001 10.5840003490000001  0.0000000000000000   F   F   F
 10.5840003490000001  0.0000000000000000  3.5280001159999999   F   F   F
  1.4516607186593962  3.9495288825424932  9.3791792925442437   T   T   T
 10.5840003490000001  8.8200002909999995  5.2920001750000001   F   F   F
  0.0000000000000000 12.3480004070000007  1.7640000579999999   F   F   F
  5.2920001750000001  3.5280001159999999  1.7640000579999999   F   F   F
 10.4943747979750039 12.1102767356970755  9.4062570377703292   T   T   T
  7.0560002329999998  8.8200002909999995  1.7640000579999999   F   F   F
  0.0467794087588642  7.3252979598079708 11.4981475912544706   T   T   T
  1.7640000579999999 10.5840003490000001  1.7640000579999999   F   F   F
  6.5299920058354441  7.2526106616580046  7.4479371068649014   T   T   T
  1.7640000579999999  3.5280001159999999  5.2920001750000001   F   F   F
  1.8171350899451069 12.4694410777831823  7.0981222862590378   T   T   T
  5.9236026596685507  8.7590090270679948 11.5206679688375537   T   T   T
  3.3819154149029971 10.7564056070983920  7.3331640768819728   T   T   T
 10.7980673941058960  0.2333833977870221 11.6553427135213479   T   T   T
 12.3480004070000007  7.0560002329999998  1.7640000579999999   F   F   F
  8.7129248502085215  8.3794649633086795  7.2436752939349942   T   T   T
 12.3480004070000007  1.7640000579999999  3.5280001159999999   F   F   F
  1.8136349694105782 -0.4709283136693670  9.3236258765633959   T   T   T
 12.3745510740575959  5.7057592811223321 12.3370555192493772   T   T   T
  8.8200002909999995 12.3480004070000007  0.0000000000000000   F   F   F
 12.3480004070000007  3.5280001159999999  1.7640000579999999   F   F   F
  5.0241353184557500  7.6079834080596678  9.4062318001368634   T   T   T
  5.2920001750000001 12.3480004070000007  0.0000000000000000   F   F   F
  7.0560002329999998  3.5280001159999999  3.5280001159999999   F   F   F
 10.5840003490000001  5.2920001750000001  1.7640000579999999   F   F   F
 12.3480004070000007  3.5280001159999999  5.2920001750000001   F   F   F
 12.3480004070000007  8.8200002909999995  0.0000000000000000   F   F   F
  7.0560002329999998 10.5840003490000001  0.0000000000000000   F   F   F
 11.7732067784725167  7.4035629927525752 14.0381272790250673   T   T   T
 12.2726118534902096  7.7424279446516291  9.7862340251557320   T   T   T
  7.0560002329999998  8.8200002909999995  5.2920001750000001   F   F   F
 12.3480004070000007  5.2920001750000001  3.5280001159999999   F   F   F
  1.9946397167768763  9.9081926165573044 13.6167670200354305   T   T   T
  7.0560002329999998 12.3480004070000007  5.2920001750000001   F   F   F
  3.5280001159999999  0.0000000000000000  0.0000000000000000   F   F   F
  3.5280001159999999  0.0000000000000000  3.5280001159999999   F   F   F
 12.3480004070000007 12.3480004070000007  0.0000000000000000   F   F   F
  4.8666977837022616  1.4571816645421192 12.4236946098280256   T   T   T
 12.0673563568858064 10.3050929207299848  9.5419984068430992   T   T   T
  7.1768748789228507  1.8417548841852669  9.5013277508197902   T   T   T
  0.0000000000000000  3.5280001159999999  3.5280001159999999   F   F   F
  6.5615387918931800 11.3114698964402578 11.5231026253549942   T   T   T
  7.0560002329999998  0.0000000000000000  3.5280001159999999   F   F   F
 -0.1565418254930887  5.8376016539142066  9.4681536642144266   T   T   T
 10.5840003490000001  8.8200002909999995  1.7640000579999999   F   F   F
  3.5280001159999999 10.5840003490000001  0.0000000000000000   F   F   F
 12.4923699027663169  9.1241678651510405 11.8159065590660610   T   T   T
  3.3175723253698193  9.2136705983148826  9.3077826083733672   T   T   T
  1.6936820594881312  5.4857292873779908 11.4215917430832867   T   T   T
  5.6192886771602630 10.2332025689343986  9.4166773468980445   T   T   T
  5.2118123505796117  6.4782200949045938 13.9863622430159538   T   T   T
 12.2011672832396947 -0.0582119407109813  9.5090622228943520   T   T   T
  0.2292081647830124  3.4922016583747788  7.2678486318526172   T   T   T
  9.8966972402659312  8.8884323503698841  9.4706619882446432   T   T   T
  2.1155270085693072 -0.1712711820221115 13.5284802821791921   T   T   T
  8.8200002909999995 10.5840003490000001  5.2920001750000001   F   F   F
  1.7640000579999999  5.2920001750000001  3.5280001159999999   F   F   F
  1.9666002304847985  9.0378295059667408 11.3603155773344255   T   T   T
  7.0560002329999998  7.0560002329999998  0.0000000000000000   F   F   F
 -0.0125984164865811  7.1926166749537286  7.2746673462071607   T   T   T
 12.4726190307113338  9.1010739507487255  7.2941036536722414   T   T   T
  0.0000000000000000  3.5280001159999999  0.0000000000000000   F   F   F
  3.1817061966314721 11.8819764644279946 14.1652947504978108   T   T   T
 10.6068086926997491  7.5033521766372893 11.7692554005736127   T   T   T
  2.9889706960351332  1.9341781747302955  9.3070409540210584   T   T   T
  6.9799257298199002  6.6071435320231569 12.2796821254851221   T   T   T
 12.7352683866768448  3.5946636059251249  9.2603576883435856   T   T   T
  4.6476450537707921 12.8289515260723928 12.2215221973580057   T   T   T
 -0.3206452028707678 12.0268737665446412  9.4750045025044152   T   T   T
  5.2920001750000001  0.0000000000000000  1.7640000579999999   F   F   F
  5.0333580824327901  9.0594693633098426  7.2107801873295081   T   T   T
  1.6932054324057775  1.5248535352778259  7.2288382546501913   T   T   T
  8.8200002909999995  0.0000000000000000  1.7640000579999999   F   F   F
  8.6231644559438063 12.5723764081529765  7.3906853759411311   T   T   T
  8.8200002909999995  1.7640000579999999  3.5280001159999999   F   F   F
  3.5280001159999999 12.3480004070000007  5.2920001750000001   F   F   F
  1.8535785201620676 11.1143221756557402  9.4506893603247875   T   T   T
 12.2729825872334342 11.9773326167228724  7.4427916455001721   T   T   T
  3.1652412723664569  3.5539258691971871  7.3847403002507610   T   T   T
 10.5840003490000001 10.5840003490000001  3.5280001159999999   F   F   F
  0.0000000000000000  1.7640000579999999  1.7640000579999999   F   F   F
 12.9436332269896806  3.6383351256455296 13.7394755955260202   T   T   T
 -0.1997982738535995  3.8192639068960870 11.3772688278496545   T   T   T
  1.7640000579999999  5.2920001750000001  0.0000000000000000   F   F   F
  5.0130824929971993  5.1764435554162453 11.8188539145252456   T   T   T
 10.5840003490000001 12.3480004070000007  5.2920001750000001   F   F   F
  3.5474526775208015 10.1637173102647775 14.5295305471536107   T   T   T
  1.8230235893178535 12.8013585670350629 14.8055675770336510   T   T   T
 11.4357130159441063  8.8671704594790643  8.6279566678540842   T   T   T
  0.0431668590183216  8.9335287458538559  7.3508100108171890   T   T   T
