Al  H 
 1.0000000000000000
    17.1319389342999990    0.0000000000000000    0.0000000000000000
     0.0000000000000000   12.1141109467000003    0.0000000000000000
     0.0000000000000000    0.0000000000000000   32.0000000000000000
 Al  H  
 216   4
Selective dynamics
Cartesian
  0.0000000000000000  0.0000000000000000  0.0000000000000000   F   F   F
 -0.0003857930021759  0.0019314739501279  5.7178197033085576   T   T   T
 -0.0050705586654220  0.0032043286287857 11.4543831827446603   T   T   T
  0.0000000000000000  4.0380371029999997  0.0000000000000000   F   F   F
 -0.0061448308726190  4.0346554304841371  5.7131193048121025   T   T   T
  0.0060634301044218  4.0456106574599220 11.4508744315371107   T   T   T
  0.0000000000000000  8.0760742049999994  0.0000000000000000   F   F   F
  0.0114291566710979  8.0839488171773279  5.7118604455490729   T   T   T
  0.0070169911220215  8.0711054650447096 11.4540438191269054   T   T   T
  5.7106464819999996  0.0000000000000000  0.0000000000000000   F   F   F
  5.7107505168064652  0.0020980081034985  5.7191143314960380   T   T   T
  5.7093979338774803  0.0176470439195112 11.4601378375533471   T   T   T
  5.7106464819999996  4.0380371029999997  0.0000000000000000   F   F   F
  5.7169560907560948  4.0343123923234154  5.7145396734772174   T   T   T
  5.6961743222577663  4.0315827287554935 11.4598263002383245   T   T   T
  5.7106464819999996  8.0760742049999994  0.0000000000000000   F   F   F
  5.6993129132092006  8.0844745461231096  5.7093456083705636   T   T   T
  5.6746076205086391  8.0738048912013483 11.4230297316944416   T   T   T
 11.4212929630000009  0.0000000000000000  0.0000000000000000   F   F   F
 11.4221059291998088  0.0065382138217332  5.7211986970409967   T   T   T
 11.4232619684625583 -0.0168830232041209 11.4641395555637970   T   T   T
 11.4212929630000009  4.0380371029999997  0.0000000000000000   F   F   F
 11.4215580662857263  3.9943982717310926  5.6434988273438034   T   T   T
 11.4233944882456058  4.0283177537621420 11.4894376066474742   T   T   T
 11.4212929630000009  8.0760742049999994  0.0000000000000000   F   F   F
 11.4223305653481901  8.0599811347474368  5.7244401007007548   T   T   T
 11.4317534684370727  8.0716494455027608 11.4484259045503567   T   T   T
  2.8553232409999998  0.0000000000000000  2.8553232409999998   F   F   F
  2.8507892561567778  0.0008986690362308  8.5647569860931867   T   T   T
  2.8597724565311764  0.0124418323248249 14.3320896651759160   T   T   T
  2.8553232409999998  4.0380371029999997  2.8553232409999998   F   F   F
  2.8516179333483014  4.0460094213841096  8.5854983855098439   T   T   T
  2.8613123052230525  4.0368271289766033 14.3032221330666083   T   T   T
  2.8553232409999998  8.0760742049999994  2.8553232409999998   F   F   F
  2.8544504976920324  8.0668383433257187  8.5902677704754282   T   T   T
  2.8371285621652618  8.0654340654694749 14.3070585560756438   T   T   T
  8.5659694670000004  0.0000000000000000  2.8553232409999998   F   F   F
  8.5657306910908364 -0.0021135706266632  8.5728418854998516   T   T   T
  8.5646289204182686  0.0203419278574544 14.3337341418541087   T   T   T
  8.5659694670000004  4.0380371029999997  2.8553232409999998   F   F   F
  8.5866308066623080  4.0515970815362090  8.5687625539301564   T   T   T
  8.5694437383179807  4.0151384737362212 14.3407479510618021   T   T   T
  8.5659694670000004  8.0760742049999994  2.8553232409999998   F   F   F
  8.5432635988406869  8.1064701974142750  8.5740832174879884   T   T   T
  8.5982596157594937  8.0751394360242390 14.3798258070451652   T   T   T
 14.2766154380000003  0.0000000000000000  2.8553232409999998   F   F   F
 14.2762749305031704  0.0013064008778913  8.5739349789632193   T   T   T
 14.2780213344158575 -0.0039340785885586 14.3170341842635356   T   T   T
 14.2766154380000003  4.0380371029999997  2.8553232409999998   F   F   F
 14.2557373602207065  4.0466940696970122  8.5702460658368427   T   T   T
 14.2743720603697231  4.0399490078571860 14.3226753836993730   T   T   T
 14.2766154380000003  8.0760742049999994  2.8553232409999998   F   F   F
 14.3042999181745785  8.1064743133157489  8.5876752850590066   T   T   T
 14.2752018574755990  8.0766870679778862 14.3239027895809716   T   T   T
  1.4276616200000001  2.0190185509999998  1.4276616200000001   F   F   F
  1.4228995699325337  2.0216817296829679  7.1423556537058666   T   T   T
  1.4093826435499990  2.0090644677265841 12.8522128662248232   T   T   T
  1.4276616200000001  6.0570554730000001  1.4276616200000001   F   F   F
  1.4317115538754150  6.0560502531324758  7.1288369374811946   T   T   T
  1.3865300737092034  6.0542815267601737 12.8727827268805264   T   T   T
  1.4276616200000001 10.0950922149999993  1.4276616200000001   F   F   F
  1.4270006905412551 10.0923216357360079  7.1445831788309517   T   T   T
  1.4250100164494193 10.1110864002478085 12.8541032377781228   T   T   T
  7.1383077190000002  2.0190185509999998  1.4276616200000001   F   F   F
  7.1489152785328072  2.0227006218784505  7.1338279452033131   T   T   T
  7.1638165169157224  2.0213474816031547 12.8273307352683634   T   T   T
  7.1383077190000002  6.0570554730000001  1.4276616200000001   F   F   F
  7.0987125841937644  6.0733086837267081  7.1424042919516459   T   T   T
  7.1619979685553856  6.0270990468476562 12.8489417223103288   T   T   T
  7.1383077190000002 10.0950922149999993  1.4276616200000001   F   F   F
  7.1336207857316891 10.1106520267548419  7.1434722289437662   T   T   T
  7.1390038694808995 10.1152362467631161 12.8520525828749932   T   T   T
 12.8489542009999997  2.0190185509999998  1.4276616200000001   F   F   F
 12.8380381710358069  2.0396693942566104  7.1494353563089534   T   T   T
 12.8576115063651422  2.0139693563612728 12.8534647453433237   T   T   T
 12.8489542009999997  6.0570554730000001  1.4276616200000001   F   F   F
 12.9602848274443101  6.1363769783554920  7.1315941584728018   T   T   T
 12.8430198516534499  6.0582474451665567 12.8397303292183960   T   T   T
 12.8489542009999997 10.0950922149999993  1.4276616200000001   F   F   F
 12.8512648007883321 10.0918425426836222  7.1393296874318866   T   T   T
 12.8461917402958914 10.0915807927202597 12.8453252369990523   T   T   T
  4.2829847340000002  2.0190185509999998  4.2829847340000002   F   F   F
  4.2794190188865580  2.0082624103738911  9.9749195524194434   T   T   T
  4.2365796945596612  2.0263948180562692 15.7290242781957055   T   T   T
  4.2829847340000002  6.0570554730000001  4.2829847340000002   F   F   F
  4.3012469107964870  6.0488936052670255  9.9697773236759026   T   T   T
  4.2552705885338780  6.0565589684692345 15.6785495073023764   T   T   T
  4.2829847340000002 10.0950922149999993  4.2829847340000002   F   F   F
  4.2778711506944509 10.1128680587679742  9.9848493700545262   T   T   T
  4.2495786373840643 10.0902840909352900 15.6642689927202401   T   T   T
  9.9936307049999993  2.0190185509999998  4.2829847340000002   F   F   F
  9.9867895737881867  1.9864510893004474 10.0244778264307666   T   T   T
 10.0284492765779198  2.0166193316060186 15.6682573928353488   T   T   T
  9.9936307049999993  6.0570554730000001  4.2829847340000002   F   F   F
 10.0115120169769831  6.0491371062777510  9.9647452227007243   T   T   T
 10.0115210426473951  6.0345434559022451 15.6570830619151256   T   T   T
  9.9936307049999993 10.0950922149999993  4.2829847340000002   F   F   F
 10.0074602982528251 10.0922562482798810  9.9818175778725209   T   T   T
 10.0113884984120602 10.1203270122971674 15.6565524375015457   T   T   T
 15.7042776970000002  2.0190185509999998  4.2829847340000002   F   F   F
 15.7035224158987212  2.0263994677246044  9.9911939565771863   T   T   T
 15.6910998423702566  2.0127420982692037 15.6486777877364158   T   T   T
 15.7042776970000002  6.0570554730000001  4.2829847340000002   F   F   F
 15.6905447692804056  6.0577217490586266  9.9854947363359230   T   T   T
 15.7093854895999225  6.0572211357451220 15.6464008212721328   T   T   T
 15.7042776970000002 10.0950922149999993  4.2829847340000002   F   F   F
 15.7104442529145345 10.1062447575440437 10.0051844235101761   T   T   T
 15.6985865053481213 10.1014754836554843 15.6503167100973428   T   T   T
  2.8553232409999998  0.0000000000000000  0.0000000000000000   F   F   F
  2.8540843538197578  0.0008181986741098  5.7172895158273871   T   T   T
  2.8494966720672013 -0.0085986674899888 11.4502603543635555   T   T   T
  2.8553232409999998  4.0380371029999997  0.0000000000000000   F   F   F
  2.8545315182904605  4.0356988686544959  5.7200702194088340   T   T   T
  2.8487236292604696  4.0118133285444424 11.4464210844402761   T   T   T
  2.8553232409999998  8.0760742049999994  0.0000000000000000   F   F   F
  2.8544313887029169  8.0768055422912823  5.7199953048115297   T   T   T
  2.8409049849661026  8.1115694211570624 11.4476077815617217   T   T   T
  8.5659694670000004  0.0000000000000000  0.0000000000000000   F   F   F
  8.5712048765791327  0.0067473367033132  5.7201744713676987   T   T   T
  8.5688428319061476 -0.0094564982219386 11.4507731832753681   T   T   T
  8.5659694670000004  4.0380371029999997  0.0000000000000000   F   F   F
  8.5820570891575780  4.0516766393464323  5.7277857762650344   T   T   T
  8.5776164039693992  4.0326824882545917 11.4425407267908685   T   T   T
  8.5659694670000004  8.0760742049999994  0.0000000000000000   F   F   F
  8.5358479367069187  8.1039268432099494  5.7073005999805764   T   T   T
  8.6010865405813739  8.0727270884183202 11.4240913854336785   T   T   T
 14.2766154380000003  0.0000000000000000  0.0000000000000000   F   F   F
 14.2714416853846497  0.0066807357128730  5.7192168218177262   T   T   T
 14.2830262584024013 -0.0113873287957389 11.4588417981970174   T   T   T
 14.2766154380000003  4.0380371029999997  0.0000000000000000   F   F   F
 14.2607933807908864  4.0517632464832021  5.7272777043929048   T   T   T
 14.2762189250131630  4.0354241781894524 11.4535535531619388   T   T   T
 14.2766154380000003  8.0760742049999994  0.0000000000000000   F   F   F
 14.3071685087371225  8.1039646619483552  5.7104131840034142   T   T   T
 14.2776963153885212  8.0742181038371417 11.4536366758672514   T   T   T
  0.0000000000000000  0.0000000000000000  2.8553232409999998   F   F   F
 -0.0068773227414153  0.0059562515066159  8.5711534737053015   T   T   T
 -0.0043265434403944 -0.0006000686873095 14.3275352315505486   T   T   T
  0.0000000000000000  4.0380371029999997  2.8553232409999998   F   F   F
 -0.0146904999749557  4.0325012231737638  8.5707256062176196   T   T   T
 -0.0116392778139395  4.0297095781346135 14.3319351002710373   T   T   T
  0.0000000000000000  8.0760742049999994  2.8553232409999998   F   F   F
  0.0013852539965013  8.0865119959187215  8.5727179791087806   T   T   T
 -0.0122282730436441  8.0837637272265308 14.3362755109046542   T   T   T
  5.7106464819999996  0.0000000000000000  2.8553232409999998   F   F   F
  5.7171660676741984 -0.0004884468097065  8.5745664375531607   T   T   T
  5.7058576670393011 -0.0254069965353687 14.3559509563460210   T   T   T
  5.7106464819999996  4.0380371029999997  2.8553232409999998   F   F   F
  5.7250880286130261  4.0368231806669623  8.5725120582634897   T   T   T
  5.7152204494376564  4.0561052208904584 14.3618635536190737   T   T   T
  5.7106464819999996  8.0760742049999994  2.8553232409999998   F   F   F
  5.7012166019678956  8.0863629042164202  8.5630590036244989   T   T   T
  5.6962707220358162  8.0859148994207466 14.4003821630378397   T   T   T
 11.4212929630000009  0.0000000000000000  2.8553232409999998   F   F   F
 11.4246506507242369  0.0031781337884829  8.5740597894238224   T   T   T
 11.4250506616454253 -0.0019268292822731 14.3192448952703781   T   T   T
 11.4212929630000009  4.0380371029999997  2.8553232409999998   F   F   F
 11.4245292353367773  3.9588560543117342  8.6895649798771384   T   T   T
 11.4257382728515378  4.0397263638733181 14.3336706680390016   T   T   T
 11.4212929630000009  8.0760742049999994  2.8553232409999998   F   F   F
 11.4245053006570760  8.0550215091061315  8.5608637595278090   T   T   T
 11.4317864948489554  8.0751962312387775 14.3301234997488169   T   T   T
  1.4276616200000001  2.0190185509999998  4.2829847340000002   F   F   F
  1.4252630792496170  2.0072804985850707  9.9922233573778136   T   T   T
  1.4036097553357234  2.0248696829686250 15.6574587961306886   T   T   T
  1.4276616200000001  6.0570554730000001  4.2829847340000002   F   F   F
  1.3992654607419803  6.0572893614262702  9.9746260761053254   T   T   T
  1.4222469525366255  6.0457394841130583 15.6667045932008886   T   T   T
  1.4276616200000001 10.0950922149999993  4.2829847340000002   F   F   F
  1.4190796751420589 10.1068135089873259  9.9878747635665697   T   T   T
  1.4256040897179669 10.0992694539010319 15.6527521749519707   T   T   T
  7.1383077190000002  2.0190185509999998  4.2829847340000002   F   F   F
  7.1411594896348438  2.0272639923333773  9.9775775888954588   T   T   T
  7.1764236624790554  2.0125478674389843 15.7322373322269993   T   T   T
  7.1383077190000002  6.0570554730000001  4.2829847340000002   F   F   F
  7.1489390267364623  6.0700803866306750 10.0030382081362532   T   T   T
  7.1414401738852025  6.0638004562536221 15.6494292904776060   T   T   T
  7.1383077190000002 10.0950922149999993  4.2829847340000002   F   F   F
  7.1321033892450520 10.0920969140701047 10.0193486556653557   T   T   T
  7.1535845264936562 10.0964697828567260 15.6515272115642254   T   T   T
 12.8489542009999997  2.0190185509999998  4.2829847340000002   F   F   F
 12.8615011173949618  1.9856307566460061 10.0265299944696533   T   T   T
 12.8613529556784343  2.0173923524963540 15.6466335215937775   T   T   T
 12.8489542009999997  6.0570554730000001  4.2829847340000002   F   F   F
 12.8426314357538356  6.0486981216548044  9.9716926083730009   T   T   T
 12.8561945511030675  6.0556183178629208 15.6493070941815393   T   T   T
 12.8489542009999997 10.0950922149999993  4.2829847340000002   F   F   F
 12.8482038012418371 10.0909151921401286  9.9912258452628038   T   T   T
 12.8555221837756495 10.0991868821985022 15.6496227535052661   T   T   T
  4.2829847340000002  2.0190185509999998  1.4276616200000001   F   F   F
  4.2865226847122599  2.0215380098056430  7.1400605591225546   T   T   T
  4.2571921330987363  2.0081270909966817 12.8320143878583828   T   T   T
  4.2829847340000002  6.0570554730000001  1.4276616200000001   F   F   F
  4.2752088680970832  6.0537072112628927  7.1258472116229310   T   T   T
  4.3336898563061412  6.0716608405269161 12.8765159357865677   T   T   T
  4.2829847340000002 10.0950922149999993  1.4276616200000001   F   F   F
  4.2799542406112101 10.0943578894456802  7.1415502505632400   T   T   T
  4.2970379364877083 10.0888456222778053 12.8522296261692208   T   T   T
  9.9936307049999993  2.0190185509999998  1.4276616200000001   F   F   F
 10.0068654811911344  2.0395820221611967  7.1508526717173613   T   T   T
 10.0056558146513961  2.0135910840929547 12.8611988499712027   T   T   T
  9.9936307049999993  6.0570554730000001  1.4276616200000001   F   F   F
  9.8855416607182018  6.1348261362836798  7.1291352797573566   T   T   T
  9.9848020956364536  6.0656862512777394 12.8458425014071356   T   T   T
  9.9936307049999993 10.0950922149999993  1.4276616200000001   F   F   F
  9.9959778042897369 10.0931045814637166  7.1369737856413336   T   T   T
  9.9787268940745566 10.0817803726468611 12.8498075596943107   T   T   T
 15.7042776970000002  2.0190185509999998  1.4276616200000001   F   F   F
 15.6934203943276724  2.0226776502469526  7.1385810454394436   T   T   T
 15.7033132145393424  2.0194938749431248 12.8411006777577814   T   T   T
 15.7042776970000002  6.0570554730000001  1.4276616200000001   F   F   F
 15.7434858486923481  6.0728948956976714  7.1387132716838240   T   T   T
 15.6846274664862619  6.0565507507385394 12.8423133702827279   T   T   T
 15.7042776970000002 10.0950922149999993  1.4276616200000001   F   F   F
 15.7083436546051338 10.1115513504964323  7.1410604949730310   T   T   T
 15.7070999211920270 10.0873200795927769 12.8454300439180606   T   T   T
 11.4233475505392956  5.0667770802205760  7.1673929881655969   T   T   T
  2.8636050660323176  6.0528081120491919 11.4310865671052859   T   T   T
  5.7090962292325971  2.0192701392085262 14.2497963329454134   T   T   T
  7.1355811637272168  8.0798944979731537 12.7554748760352599   T   T   T
