Al  H 
 1.0000000000000000
    16.1521472486673723    0.0000000000000000    0.0000000000000000
     0.0000000000000000   16.1521472486673723    0.0000000000000000
     0.0000000000000000    0.0000000000000000   16.1521472486673723
 Al  H  
 256   4
Cartesian
 -0.0093102020316826 -0.0096289597803985 -0.0097456365068771
 -0.0011303375229096  2.0167699547631184  2.0176131323080662
  2.0184229556499456 -0.0025496422950593  2.0209127553838586
  2.0179714848632577  2.0173955848915539  0.0023726453786414
  0.0080446727425107 -0.0026810763018851  4.0283668205726348
 -0.0232128310805552  2.0137761538034167  6.0289516597980795
  2.0121052189753112 -0.0286541451849136  6.0299488848118363
  2.0186621967180018  2.0197797781371110  4.0399139374518418
 -0.0287645049084355 -0.0198131635190797  8.0686465314722202
  0.0159670177656333  2.0228459926603515 10.0893089539950633
  2.0263311242196536  0.0226525318046856 10.0937956191139637
  1.9507348860175424  1.9512950825824313  8.0069621357305962
 -0.0061936018893923 -0.0040110116024755 12.1176130573350420
  0.0092128202780845  2.0317165352668263 14.1304964914754105
  2.0309686027757223  0.0089742902983513 14.1311655121986792
  2.0248985307407832  2.0263535673964252 12.0969367255107159
  0.0010199731413718  4.0402006786515026  0.0012134150796265
 -0.0026039491723085  6.0522679335243303  2.0183210795985023
  2.0181184409555306  4.0387865173816646  2.0160607955989014
  2.0187552174736387  6.0518188932198038 -0.0072741595688134
  0.0016044994863986  4.0374340532305313  4.0396798192447161
  0.0055564593000934  6.0567520217174433  6.0600792898059996
  2.0265408350423058  4.0297819306626890  6.0740337256259256
  2.0187744894658506  6.0571519722977332  4.0396817849626618
  0.0215792772648689  4.0357392284661744  8.0842692093350532
 -0.0275120295813923  6.0827126855182811 10.1027927245659193
  1.9488382547746288  4.1081799634424527 10.1645233679341924
  2.0263049905690438  6.0426271413422148  8.0809421931239722
 -0.0253378045473326  4.0474996946432684 12.1396096049131490
 -0.0010655854719893  6.0584425250989167 14.1384056758718941
  2.0208977977323630  4.0391513046103844 14.1305558276198404
  2.0105745642085195  6.0837017907486555 12.1407081961450789
  0.0003493134150370  8.0723067379366089 -0.0033067065050962
 -0.0255399410525364 10.0883570792788664  1.9911621083204731
  2.0107413412282993  8.0492852632740330  1.9931360245626513
  2.0179992932059800 10.0968687496646634  0.0037954696428649
 -0.0273557941277594  8.0501295398922501  4.0295693170300915
  0.0159511765353296 10.1022569345842150  6.0494002902709232
  2.0256720387549629  8.0912805321467776  6.0520487100444624
  1.9493464327198029 10.0248003234447829  3.9689691311775777
  0.0046133371307542  8.0776992827651970  8.0740973136050798
  0.0083888717173742 10.0907049459821394 10.0931590443209043
  2.0189744136881420  8.0754965856780991 10.0936647569892575
  2.0254242528843727 10.1038400406860305  8.0591765220550577
 -0.0004220602386007  8.0787010375885764 12.1131309568544658
  0.0054603338865433 10.0818827886037159 14.1320826882892501
  2.0212297859922193  8.0795031373780528 14.1398851468271900
  2.0174037549757289 10.0960049790332658 12.1159663806872722
 -0.0066538639374114 12.1240395073750680 -0.0081021798480646
  0.0086057568195169 14.1307982607096747  2.0346875069135697
  2.0256315563924190 12.1052223389156346  2.0342688966882325
  2.0321342160812961 14.1301002712107238  0.0086741194712077
  0.0183517936497960 12.1048437480905111  4.0473517633085727
 -0.0302698838047724 14.1537901355725246  6.0664912796582522
  1.9494219713248990 12.1825141476349277  6.1256988745408751
  2.0279678277047752 14.1112063755993500  4.0423290053704219
 -0.0283122584203486 12.1237479662516119  8.0995622241909828
  0.0068892909112932 14.1362764212226573 10.0879132140101824
  2.0178572802570192 12.1117948438514880 10.0942201344348206
  2.0146388989232373 14.1612639488153942  8.1001035113235780
 -0.0030830012627355 12.1205555724822336 12.1257287361781678
  0.0399561358289630 14.1338149563464111 14.1373488539398444
  2.0322684518269525 12.1093163901823395 14.1321510845526319
  2.0321515488829140 14.1360386013835413 12.1054367044561442
  4.0392743167782807  0.0067067940566960 -0.0042512026646420
  4.0393709590733256  2.0185465508977893  2.0162229005379464
  6.0589121223859417  0.0042500316568995  2.0186494407954525
  6.0576417062015304  2.0184604130933836 -0.0008926378773941
  4.0386838442994302 -0.0002533853027663  4.0396345579050035
  4.0313420126171016  2.0275039484672313  6.0739461589851329
  6.0536347221969677  0.0011910118683656  6.0624916377042704
  6.0546329083152770  2.0194621431451969  4.0403056709868972
  4.0300969399219202  0.0148652130406757  8.0812934803498671
  4.1065679442101235  1.9495856689523066 10.1644085599556231
  6.0851981734890943 -0.0269519113025250 10.1023784105388508
  6.0417361216310956  2.0235852382363171  8.0829662699697238
  4.0467692481543338 -0.0250212045979186 12.1393552116676240
  4.0395141096711153  2.0216727058344057 14.1304230271261879
  6.0529876150242368 -0.0020351279960194 14.1442581584696807
  6.0788111553789470  2.0124675150519717 12.1429692421251723
  4.0376896390369881  4.0385716667767975  0.0022416511768148
  4.0386789194271318  6.0600736633125507  2.0221738166271250
  6.0582191188837191  4.0393141335495253  2.0188703743276766
  6.0584118394151325  6.0578913999473372 -0.0001806095695993
  4.0385953604529909  4.0366144510552529  4.0398315240323939
  4.0460034042449751  6.0852545352893799  6.0308020843082142
  6.0845639228391732  4.0450843075984286  6.0303512495026537
  6.0560686925064307  6.0603264169370012  4.0317801376370124
  4.1078788031930573  4.1060654341252913  8.0073690194433382
  4.0295568133160042  6.0359018536070188 10.0928751402255532
  6.0350721103525382  4.0352658110880224 10.0875668826242055
  6.0852304718312693  6.0782297793688018  8.0698051968381659
  4.0300034897084860  4.0298321287387262 12.0982178803754721
  4.0388724848803434  6.0541842496631411 14.1316807277126983
  6.0542911479774126  4.0389821510133928 14.1314037610437193
  6.0541431996981885  6.0548341758715898 12.1112120384417050
  4.0374849142356997  8.0795541067480894  0.0011677120170631
  4.0309235415306182 10.1031823494276729  2.0350503018670634
  6.0542290942157049  8.0785351389072009  2.0210418505882353
  6.0536386896760987 10.0946832581245438  0.0011591705796012
  4.0302196501585481  8.0979287045432269  4.0403956537256409
  4.1070928088080834 10.0263870670234017  6.1259042153975614
  6.0850727375568194  8.0541322616689985  6.0637275790917702
  6.0400890770733504 10.1028393564327015  4.0452746580664627
  4.0452821284982834  8.0474732725650426  8.1022966657039817
  4.0390310356556967 10.0968527150041592 10.0931925389679567
  6.0561145774389873  8.0730688079247095 10.1012254790198455
  6.0794617913042881 10.0825086377741258  8.1031864652452583
  4.0383396675026670  8.0733781644374840 12.1110447693617118
  4.0405327288136546 10.0916875643741921 14.1310153586323075
  6.0580766907847270  8.0743712026485550 14.1336550056564985
  6.0586290992421334 10.0941700912387713 12.1161264711965106
  4.0393386826985740 12.1116664769798490  0.0040977996926529
  4.0476515403300537 14.1598004677333549  1.9945672361907365
  6.0836541665663928 12.1235872746338895  1.9922394496094071
  6.0583597891746894 14.1346671450760635 -0.0057485359011074
  4.1070404435491019 12.1843234041694455  3.9681810422614219
  4.0313789161998130 14.1177347417252523  6.0515242679127796
  6.0340947714469735 12.1048096525989699  6.0474282675190416
  6.0787465011302348 14.1606672744330613  4.0258353088431198
  4.0296150975819689 12.1052521597980469  8.0593172211684756
  4.0397622277253777 14.1327651320029961 10.0911767822546299
  6.0564027811970922 12.1179888132047093 10.0938264850504265
  6.0556048877566431 14.1326149466238711  8.0723035740922828
  4.0412098441341318 12.1125770011276082 12.1155445715428467
  4.0404194758212038 14.1281502355524573 14.1390327164256178
  6.0577011282012911 12.1136615217421646 14.1335351044654729
  6.0610282711000938 14.1272658761812799 12.1126864695237693
  8.0724619726488047  0.0018795114769217  0.0020232961631317
  8.0750648852106170  2.0204235442471061  2.0204695105784221
 10.0961007365435886  0.0005396790697614  2.0162572189506105
 10.0962450755494952  2.0189162698895879  0.0008081844021317
  8.0850752509005321  0.0053657168984641  4.0404301247270125
  8.0762590132297074  2.0156792704044952  6.0620656928571055
 10.1011284271313784 -0.0083340445301614  6.0738430692671210
 10.0950437596455913  2.0166780664889981  4.0404210695017824
  8.0916258394383931 -0.0054872925456253  8.0830727379121896
  8.0477803683357987  2.0449098719994065 10.1029777593105301
 10.0276875214337799  0.0694046227529249 10.1670069197481858
 10.1035826073864659  2.0015473666921677  8.0833186654792701
  8.0526324068990522  0.0073460548857150 12.1409971297773822
  8.0783958561869191  2.0231472627862259 14.1440621538451978
 10.0814228154459027  0.0074256824630168 14.1319323432827932
 10.0894853892849632  2.0441492017938843 12.1409319128671385
  8.0769238882260659  4.0375790160215610 -0.0004953972685643
  8.0758948364418988  6.0567786665807297  2.0176457024640206
 10.0958113293271747  4.0381664533155481  2.0189531192903627
 10.0946895506001937  6.0575864916936322 -0.0003145025983505
  8.0816637661620110  4.0379227102021220  4.0323242054194202
  8.0866689145037807  6.0523514328192487  6.0547273779024362
 10.0956630832061762  4.0355408588464572  6.0593247512426291
 10.0954999660155185  6.0563414297391551  4.0387146352089678
  8.0760955936806766  4.0359553747337920  8.0752333449135776
  8.0729174451207371  6.0541952188316923 10.0955798461089792
 10.0967840417536525  4.0358738268231473 10.0957251431494441
 10.0949329056919694  6.0596538563936617  8.0746221367475961
  8.0730810231422616  4.0436995301304464 12.1139537624532299
  8.0752656807369991  6.0581800391050473 14.1331420218234420
 10.0923813620564466  4.0460726980971495 14.1390819924083058
 10.0940335981403368  6.0571612539682818 12.1166668685410510
  8.0766363496720004  8.0762306122425791 -0.0002895787835741
  8.0743110062921595 10.0949368065068228  2.0216227215863576
 10.0945974250812274  8.0743345202618801  2.0178033221979921
 10.0956671748933111 10.0961611973100194 -0.0001358732120228
  8.0745649667151724  8.0786522422353482  4.0378000722712093
  8.0720991661466108 10.0902534729115878  6.0558474467564105
 10.0945665603138259  8.0754023025232655  6.0572181649360619
 10.0973494770423393 10.0887907214234058  4.0317259110210522
  8.0862317418199723  8.0801992455963791  8.0775141835227604
  8.0846996385692655 10.0968608169394933 10.1009217084078635
 10.0947952740648592  8.0741359131171269 10.0954612212037755
 10.0966621197957807 10.0977860360999916  8.0771024758630325
  8.0759384245417785  8.0775112105161160 12.1161941811691722
  8.0730751285864049 10.0929691606102399 14.1336869355407249
 10.0925003126150745  8.0743835738277827 14.1330151992811270
 10.0964288299890761 10.0978534128323467 12.1118659648010638
  8.0790021638280152 12.1116929316520814 -0.0049790257848363
  8.0792661987984644 14.1341791220376560  2.0197646699278824
 10.0956938138381584 12.1138626247706416  2.0167821928661853
 10.0816487921537696 14.1323765760014943  0.0071606176142164
  8.0726117583449692 12.1131702697553827  4.0324928546691963
  8.0464246260954333 14.1215557065796382  6.0314911322638185
 10.0874808482859315 12.0883164764436852  6.0300279871115681
 10.0933858629972004 14.1340769082481987  4.0421692348694069
  8.0474121378102286 12.0895279999298211  8.0644340051154852
  8.0960529191585504 14.1354215759428694 10.0851261541945032
 10.1024461493754352 12.1284925612884074 10.0879762098133643
 10.0239747664717456 14.0632706592537335  8.0055818175438898
  8.0774588036936663 12.1153079009197917 12.1088775349322422
  8.0773514300480933 14.1324936972386936 14.1310568853229768
 10.0818246921099881 12.1104405360269407 14.1300221645118285
 10.0930231936384533 14.1405548551757221 12.0899904453199500
 12.1234183001180789 -0.0089741319371441 -0.0083632885859843
 12.1137662955319705  2.0185519262844607  2.0173725299575049
 14.1343211492804421  0.0066874505367226  2.0310207192998377
 14.1337359050127986  2.0323863260300095  0.0051167672297125
 12.1129273546715979  0.0014801173846925  4.0422944064280237
 12.1213688389900511  2.0460973870371491  6.0295115095123162
 14.1498772150993606  0.0119320356023286  6.0277351322121095
 14.1289513452302131  2.0227028121108819  4.0292439240635174
 12.1818667605065833  0.0697349184154272  8.0047158820553754
 12.1047756974499130  2.0002428159387651 10.0884642282682453
 14.1178308479700032  0.0010916215646152 10.0781331907133662
 14.1611387058307852  2.0467960964029759  8.0661618111419919
 12.1161976754018355 -0.0162373880930646 12.1053363274666950
 12.1086510387679187  2.0298187074586145 14.1305873460207732
 14.1303773120019578  0.0368886968008486 14.1306398197181231
 14.1331117849204144  2.0290826864138243 12.1020927011616291
 12.1115917757949756  4.0397502571132238  0.0017643917026998
 12.1144429273760696  6.0578143198971368  2.0187191539282381
 14.1331196253255200  4.0398772717066089  2.0218662610686122
 14.1334081525222786  6.0571160200714314  0.0007877566418058
 12.1138633027651821  4.0430097239660663  4.0314906552158467
 12.1155899807139686  6.0575969883159910  6.0553404860798494
 14.1368317938649355  4.0455380936517349  6.0577423748095409
 14.1273530352963999  6.0519643771489466  4.0396634267384783
 12.1129934514416657  4.0359407368733695  8.0760914498773619
 12.1154400952657628  6.0596354380213455 10.0960315711643087
 14.1330437829257018  4.0378955644213397 10.0936572600427485
 14.1365029718667703  6.0535437250245367  8.0747716928485307
 12.1127684915479676  4.0377466577782304 12.1103984667703344
 12.1133201600042266  6.0561825567126046 14.1329130645572718
 14.1277169829614149  4.0395606181270489 14.1385074450194601
 14.1281465460302851  6.0580336411977553 12.1158331566644897
 12.1120517742843266  8.0737801163761045  0.0020435061229448
 12.1142240100515028 10.0958866575910289  2.0178120663312873
 14.1272995449025274  8.0725279414376185  2.0202085459307013
 14.1275787897849341 10.0822536009019359  0.0013236011169593
 12.1146850683191047  8.0764868373900640  4.0370951959686341
 12.1135964673515240 10.0965471809376286  6.0605119429173184
 14.1357871931362240  8.0787144556078534  6.0563441547194898
 14.1352609596685816 10.0933865020635309  4.0401017727790238
 12.1159115675111906  8.0740291644505859  8.0769251977075580
 12.1138194351501269 10.0989959113641845 10.0961053948206789
 14.1279737285383096  8.0793025460925438 10.0929402946092441
 14.1324238642897164 10.0937211373887585  8.0704975964914780
 12.1128517561519526  8.0747452205944814 12.1131186630535854
 12.1069419176254396 10.0772868237267534 14.1375308741055115
 14.1328536501430122  8.0733166803706595 14.1325347565070505
 14.1343614455840747 10.0782565499650438 12.1081846845179530
 12.1232857768991309 12.1222025062692538 -0.0087912688334317
 12.1085537898105464 14.1334673145454506  2.0312428833450658
 14.1355741694752890 12.1076876101627242  2.0354658381615196
 14.1338465908468152 14.1327546298561320  0.0369683154637500
 12.1112954978395724 12.1158216352744912  4.0424165026677743
 12.1055966759942670 14.1408855086380516  6.0742599152933074
 14.1335427966987908 12.1161475992052683  6.0592937929902666
 14.1323630494643453 14.1295980575645022  4.0413273024229754
 12.1041526652239781 12.1284929572198212  8.0817900553867368
 12.1732109855301260 14.0630027238569593 10.1533400208801705
 14.1538990231763933 12.0808835568974260 10.0951857461596948
 14.1053786794507694 14.1375173077076557  8.0850154254957225
 12.1297724026896709 12.0968105839613127 12.1489164829343572
 12.0767406061867852 14.1323448038716872 14.1328705806120780
 14.1348967776471248 12.0761365985147098 14.1384015590229293
 14.1642516607843607 14.1271047268527496 12.1083299233961164
  3.0282677770746171  3.0285622084458623  9.0861598090657871
  3.0286716947968499 11.1047439685501175  5.0471272521406876
 11.1025623218237932 15.1448285770468143  9.0827938446402214
 14.1326372557117850 14.1341601880392691 14.1326327048796632
