Cu  H 
 1.0000000000000000
    10.3099279403999997    0.0000000000000000    0.0000000000000000
    -5.1549651590999996    8.9286588211000009    0.0000000000000000
     0.0000000000000000    0.0000000000000000   32.0000000000000000
 Cu  H  
 144   4
Selective dynamics
Cartesian
  0.0000000000000000  0.0000000000000000  0.0000000000000000   F   F   F
  0.0089659493769911  0.0004694586736114  6.3061445363815958   T   T   T
 -0.0013203007094621  0.0003311372536519 12.6733727918070507   T   T   T
 -2.5774825799999999  4.4643294109999996  0.0000000000000000   F   F   F
 -2.5318431428153154  4.4459195855970819  6.3628467467338998   T   T   T
 -2.5754418849317671  4.4643078582380742 12.6922508010483792   T   T   T
  5.1549639699999998  0.0000000000000000  0.0000000000000000   F   F   F
  5.1475452659381373  0.0461582728587840  6.3698898607743768   T   T   T
  5.1542047778251012 -0.0035856496323951 12.6961655345214872   T   T   T
  2.5774813910000001  4.4643294109999996  0.0000000000000000   F   F   F
  2.5767468470200967  4.4578709624341029  6.3274995128095117   T   T   T
  2.5698514572617421  4.4668672951315793 12.6918222329689385   T   T   T
 -0.0000003960000000  2.9762196959999998  2.1045053430000000   F   F   F
  0.0262318780233996  2.9791253318394224  8.4501787145968894   T   T   T
  0.0028113631990740  2.9777890955025974 14.7858741151667914   T   T   T
 -2.5774831290000000  7.4405493720000004  2.1045053430000000   F   F   F
 -2.5715366085704598  7.4412788947534416  8.4592148235801634   T   T   T
 -2.5775891583404684  7.4408831778552296 14.7707996294053849   T   T   T
  5.1549637280000002  2.9762196959999998  2.1045053430000000   F   F   F
  5.1019605909593961  2.9990014996751895  8.4133026530935222   T   T   T
  5.1474433283466832  2.9798016813874395 14.7938406015900856   T   T   T
  2.5774809940000001  7.4405493720000004  2.1045053430000000   F   F   F
  2.5831563980654528  7.4183050723869934  8.4655768274888707   T   T   T
  2.5767072323470575  7.4370037438532055 14.7904173738470632   T   T   T
  2.5774818640000001  1.4881098479999999  4.2090106850000000   F   F   F
  2.5680091583849776  1.4883433710881619 10.5639324187813042   T   T   T
  2.5754067992261906  1.4869944998214182 16.8614986038087409   T   T   T
 -0.0000007930000000  5.9524393910000004  4.2090106850000000   F   F   F
  0.0030625140215715  5.9461711814005467 10.5834596586998604   T   T   T
 -0.0006877873990965  5.9522501505194940 16.8734835272997081   T   T   T
  7.7324461409999996  1.4881098479999999  4.2090106850000000   F   F   F
  7.7589367401058826  1.4698163687752117 10.6865335395964820   T   T   T
  7.7346568698286084  1.4873292675582821 16.8717683026148499   T   T   T
  5.1549634849999997  5.9524393910000004  4.2090106850000000   F   F   F
  5.1468366735415447  5.9567199770923223 10.5729851309836231   T   T   T
  5.1553559943298808  5.9545010891503267 16.8604626775576598   T   T   T
  3.8662227630000001  0.7440549240000000  2.1045053430000000   F   F   F
  3.8396844451735910  0.7297668060559854  8.4492392146842796   T   T   T
  3.8635271400133582  0.7430500934480406 14.7795912539160064   T   T   T
  1.2887402990000001  5.2083841350000002  2.1045053430000000   F   F   F
  1.2877906614501640  5.2019521819935699  8.4633227328676366   T   T   T
  1.2886921039652763  5.2076274976455617 14.7940380810861232   T   T   T
  9.0211864259999999  0.7440549240000000  2.1045053430000000   F   F   F
  9.1270509674680991  0.6863361505328591  8.4021106495024984   T   T   T
  9.0239266476879276  0.7426160752336054 14.7822492008020880   T   T   T
  6.4437039619999998  5.2083841350000002  2.1045053430000000   F   F   F
  6.4461046845675467  5.2324954225685918  8.4679380710326626   T   T   T
  6.4429906297719297  5.2108371999900722 14.7769329274961478   T   T   T
 -1.2887415650000000  3.7202744200000000  4.2090106850000000   F   F   F
 -1.2687887098307704  3.7340725772168972 10.5901320446342950   T   T   T
 -1.2862622054175428  3.7221991603705860 16.8728449954984647   T   T   T
 -3.8662239910000000  8.1846035649999997  4.2090106850000000   F   F   F
 -3.8663699077548399  8.1832008718284222 10.5580364752752907   T   T   T
 -3.8667675333387082  8.1852777149179445 16.8500150711420247   T   T   T
  3.8662223290000002  3.7202744200000000  4.2090106850000000   F   F   F
  3.8300141050481167  3.7369882588321595 10.5833401695455098   T   T   T
  3.8630122363747916  3.7217655086612389 16.8722295097610591   T   T   T
  1.2887399030000000  8.1846035649999997  4.2090106850000000   F   F   F
  1.2857852703321087  8.1575725183624250 10.6040701111501576   T   T   T
  1.2879876810801170  8.1815654522680497 16.8776045786764719   T   T   T
  1.2887405420000000  2.2321647050000002  0.0000000000000000   F   F   F
  1.2919473212755068  2.2252154135446438  6.3252165805535627   T   T   T
  1.2894033162022853  2.2363764454860413 12.6836411992399860   T   T   T
 -1.2887420380000001  6.6964941160000002  0.0000000000000000   F   F   F
 -1.3016630729507621  6.6813209073835660  6.3830057200745438   T   T   T
 -1.2862764007288847  6.6948544426570242 12.6842203122772954   T   T   T
  6.4437046650000003  2.2321647050000002  0.0000000000000000   F   F   F
  6.4460339664262571  2.2226212111619845  6.3108887608067770   T   T   T
  6.4366603932195554  2.2334008515002970 12.7286902785634570   T   T   T
  3.8662220860000001  6.6964941160000002  0.0000000000000000   F   F   F
  3.8643666868425508  6.7094985870784365  6.3362480988795511   T   T   T
  3.8610056647253268  6.6931286747764460 12.6886610134757341   T   T   T
  2.5774814350000002  2.9762196959999998  2.1045053430000000   F   F   F
  2.5697880314228008  2.9741032039348374  8.4475472703485526   T   T   T
  2.5744150873454910  2.9774432216964848 14.7842666196935593   T   T   T
 -0.0000012980000000  7.4405493720000004  2.1045053430000000   F   F   F
 -0.0005670020991548  7.4258358782280203  8.4934350378398431   T   T   T
 -0.0011951475229563  7.4392942381817493 14.7853112298446661   T   T   T
  7.7324450980000003  2.9762196959999998  2.1045053430000000   F   F   F
  7.7614373314814120  3.0447324235365834  8.4134550997871909   T   T   T
  7.7351160865406028  2.9792823367268868 14.7964803070261528   T   T   T
  5.1549623650000003  7.4405493720000004  2.1045053430000000   F   F   F
  5.1613752788828604  7.4268956685340797  8.4531490743794802   T   T   T
  5.1546075713508772  7.4401800972062553 14.7680166525709211   T   T   T
 -0.0000003520000000  1.4881098479999999  4.2090106850000000   F   F   F
  0.0214790620380801  1.4894478724747588 10.5804922133320840   T   T   T
  0.0025323694586356  1.4871512401839937 16.8619898967406314   T   T   T
 -2.5774830080000002  5.9524393910000004  4.2090106850000000   F   F   F
 -2.5706290716211568  5.9576665805513915 10.5739467901507673   T   T   T
 -2.5775247243396562  5.9547625358048801 16.8604269546513912   T   T   T
  5.1549635420000000  1.4881098479999999  4.2090106850000000   F   F   F
  5.1003655102764851  1.4577101433115680 10.6203820249279186   T   T   T
  5.1520060241881254  1.4875426865684780 16.8731190427877777   T   T   T
  2.5774808849999999  5.9524393910000004  4.2090106850000000   F   F   F
  2.5716625345241653  5.9517823066592381 10.5771620050022417   T   T   T
  2.5779643008177402  5.9514797681352460 16.8746496449322407   T   T   T
  2.5774818310000001  0.0000000000000000  0.0000000000000000   F   F   F
  2.5679719038484201  0.0073911408858043  6.3242236207639593   T   T   T
  2.5760501699412872  0.0010032458441849 12.6715028111971240   T   T   T
 -0.0000007480000000  4.4643294109999996  0.0000000000000000   F   F   F
  0.0146841305669253  4.4467785818889549  6.3369018336754062   T   T   T
  0.0051442432841401  4.4652774301571858 12.6959275837191221   T   T   T
  7.7324459550000002  0.0000000000000000  0.0000000000000000   F   F   F
  7.7507310273679622 -0.0022430725754629  6.3134017994982017   T   T   T
  7.7295070427399377 -0.0123017723766747 12.7095407003356176   T   T   T
  5.1549633760000004  4.4643294109999996  0.0000000000000000   F   F   F
  5.1168344210806209  4.4503986006439851  6.3715574679525409   T   T   T
  5.1435050499383443  4.4680807183040674 12.6941336837596612   T   T   T
  1.2887409320000001  0.7440549240000000  2.1045053430000000   F   F   F
  1.3035665723880476  0.7421586992229392  8.4447855365518372   T   T   T
  1.2891470773197964  0.7448561654022301 14.7668278437353351   T   T   T
 -1.2887415320000000  5.2083841350000002  2.1045053430000000   F   F   F
 -1.2732954495555835  5.2152551633350219  8.4702510700834246   T   T   T
 -1.2882470477063410  5.2094246624757723 14.7821015913781988   T   T   T
  6.4437050559999998  0.7440549240000000  2.1045053430000000   F   F   F
  6.4009254127150212  0.6743416556042312  8.4201647089714449   T   T   T
  6.4416540346035376  0.7393622322025434 14.7997869773332642   T   T   T
  3.8662225910000001  5.2083841350000002  2.1045053430000000   F   F   F
  3.8587812896053735  5.2149893996052041  8.4578505370716854   T   T   T
  3.8628930384432043  5.2094626708724530 14.7854567978782150   T   T   T
  1.2887406509999999  3.7202744200000000  4.2090106850000000   F   F   F
  1.2841522652726585  3.7209306504838930 10.5714382852749047   T   T   T
  1.2892871782265838  3.7196876253188158 16.8728141864992445   T   T   T
 -1.2887417750000001  8.1846035649999997  4.2090106850000000   F   F   F
 -1.2945965281800353  8.1763632086469524 10.5753501780911385   T   T   T
 -1.2911720238509501  8.1834457390300823 16.8634806858015267   T   T   T
  6.4437049279999998  3.7202744200000000  4.2090106850000000   F   F   F
  6.4403195813822984  3.7725084963672724 10.6222025909097830   T   T   T
  6.4431726310788795  3.7231978811372834 16.8701631466621009   T   T   T
  3.8662225019999998  8.1846035649999997  4.2090106850000000   F   F   F
  3.8745452375401390  8.1628453110666843 10.5828207432676233   T   T   T
  3.8687032178208058  8.1834631633743165 16.8638674805786728   T   T   T
 -1.2887412899999999  2.2321647050000002  0.0000000000000000   F   F   F
 -1.2713501885257201  2.2287347080264728  6.3037296444294686   T   T   T
 -1.2804715468360137  2.2401249262617293 12.7049828033687540   T   T   T
 -3.8662238690000001  6.6964941160000002  0.0000000000000000   F   F   F
 -3.8613359580261761  6.7448550224447805  6.3636878111256179   T   T   T
 -3.8674222800335287  6.6962014018531812 12.6717578401616588   T   T   T
  3.8662226799999999  2.2321647050000002  0.0000000000000000   F   F   F
  3.8561171528999472  2.2294307518122007  6.3227886859663158   T   T   T
  3.8555535231185485  2.2371198937194996 12.6934878919944936   T   T   T
  1.2887401009999999  6.6964941160000002  0.0000000000000000   F   F   F
  1.3333174279802071  6.6712677406158436  6.3819665679753692   T   T   T
  1.2884323497095642  6.6887436958651154 12.7005587113656020   T   T   T
  7.8164774509848742  1.4410099654738566  8.9855829744521341   T   T   T
  6.1154478897592295  2.4081586100772410  9.6361826756960109   T   T   T
  6.4424867823791621  5.1758231431314581  5.3425902176802298   T   T   T
  0.0193639396700216  7.4676809005700138  5.3602072141846460   T   T   T
