Cr Co Ni  H 
 1.0000000000000000
    14.1120004653999995    0.0000000000000000    0.0000000000000000
     0.0000000000000000   14.1120004653999995    0.0000000000000000
     0.0000000000000000    0.0000000000000000   32.0000000000000000
 Cr  Co  Ni  H  
  86  85  85   4
Selective dynamics
Cartesian
  5.2920001750000001  1.7640000579999999  0.0000000000000000   F   F   F
  3.5280001159999999 12.3480004070000007  1.7640000579999999   F   F   F
  3.6771759585494297  4.3616030381688962 14.3702776412794915   T   T   T
  0.0000000000000000  3.5280001159999999  0.0000000000000000   F   F   F
  1.7640000579999999  3.5280001159999999  1.7640000579999999   F   F   F
  5.2260711140994109  7.3460300620634689  9.6842480295987254   T   T   T
 11.9737866491581357  4.8529277230521339 11.5400693092423516   T   T   T
  8.4100722347549528  8.7193937958448604 11.5719337422827575   T   T   T
 10.5840003490000001 10.5840003490000001  0.0000000000000000   F   F   F
  3.2364108877806821 -0.4306960356164334  7.7127482345157974   T   T   T
  7.0560002329999998 10.5840003490000001  3.5280001159999999   F   F   F
 10.5840003490000001  8.8200002909999995  1.7640000579999999   F   F   F
  3.1121739715446650  9.3185854618873396  9.3553403007516920   T   T   T
 -0.7269851036061820  9.6474786996153679 11.5545066008113366   T   T   T
  3.5280001159999999  7.0560002329999998  3.5280001159999999   F   F   F
 12.3480004070000007  7.0560002329999998  1.7640000579999999   F   F   F
 10.3497250345834928  2.0891243284057524  9.1440076323481936   T   T   T
  4.7372832928883399  1.3029968370365641 11.9237203873029216   T   T   T
 10.5840003490000001 10.5840003490000001  3.5280001159999999   F   F   F
 -0.0234565636829971  0.1321896961203507  7.5408201572063884   T   T   T
  7.2351208779273444  9.2816388753377819 14.3977973765264338   T   T   T
  5.0123978404071279 -0.4696856380868950 14.3321654895287427   T   T   T
 10.5840003490000001  3.5280001159999999  3.5280001159999999   F   F   F
 -0.8426302818606386 12.1724340054305991 10.1081220378961749   T   T   T
  3.5280001159999999  5.2920001750000001  1.7640000579999999   F   F   F
 12.3480004070000007  5.2920001750000001  0.0000000000000000   F   F   F
  0.0000000000000000  0.0000000000000000  0.0000000000000000   F   F   F
  1.9380450321645839  8.3146668873618523 11.6365829523188911   T   T   T
 10.5840003490000001  3.5280001159999999  0.0000000000000000   F   F   F
  3.1860372025432309 10.9526613936957276 12.0348764304168814   T   T   T
 12.3480004070000007 10.5840003490000001  5.2920001750000001   F   F   F
  7.0400267855673340  1.5260925270761649 10.0338273753858189   T   T   T
  5.2920001750000001 10.5840003490000001  1.7640000579999999   F   F   F
  1.7640000579999999  5.2920001750000001  0.0000000000000000   F   F   F
  7.0560002329999998  1.7640000579999999  5.2920001750000001   F   F   F
  1.9719221188629967  1.9453974905484523  7.4542650998581061   T   T   T
  1.7640000579999999  0.0000000000000000  5.2920001750000001   F   F   F
  6.8410082770855860  7.1224584981217642  7.3069730403854338   T   T   T
 12.3480004070000007  1.7640000579999999  3.5280001159999999   F   F   F
 12.3480004070000007  8.8200002909999995  3.5280001159999999   F   F   F
  7.0560002329999998  1.7640000579999999  1.7640000579999999   F   F   F
  5.2920001750000001 10.5840003490000001  5.2920001750000001   F   F   F
  5.2771940872118455  8.8709961357307989 12.1118180504921664   T   T   T
 10.5840003490000001  1.7640000579999999  1.7640000579999999   F   F   F
  7.4463297353008846  2.3203759395535419 12.8276313489226599   T   T   T
  7.3305972300959983  4.8654382307050028 10.1421536795837923   T   T   T
  5.5861428687977774 10.5818094364054645  9.7471207196979037   T   T   T
  8.8200002909999995  5.2920001750000001  3.5280001159999999   F   F   F
  1.7640000579999999  0.0000000000000000  1.7640000579999999   F   F   F
 10.9211922192198454 11.9003044171216157 14.8158789103577302   T   T   T
  8.0832770750180281  2.7896980398156841  7.7026434116821410   T   T   T
  8.9460844486306286  8.6887598869325480  7.2503432987187715   T   T   T
  6.5068487657763239  4.5226269978235898 14.9903100832491898   T   T   T
 10.5840003490000001  0.0000000000000000  0.0000000000000000   F   F   F
  1.2742798819391565 11.7970734176029541  7.9932821620890913   T   T   T
  3.1212611714726486  3.6617408300004932 11.6218050218663080   T   T   T
  3.5280001159999999  8.8200002909999995  1.7640000579999999   F   F   F
  5.2920001750000001  5.2920001750000001  3.5280001159999999   F   F   F
  0.0000000000000000  7.0560002329999998  3.5280001159999999   F   F   F
  5.0851647204045642  1.7634281442428217  7.7630674879222639   T   T   T
  8.9446455057227450  3.0961826557767420 15.4110075390155501   T   T   T
 -0.4732727549146399  0.3372423853164236 11.5533224038912898   T   T   T
  8.6114133726952122 10.9116920579482546  9.5927225662326041   T   T   T
  8.8200002909999995  0.0000000000000000  1.7640000579999999   F   F   F
 10.5840003490000001 12.3480004070000007  1.7640000579999999   F   F   F
  3.5280001159999999  3.5280001159999999  0.0000000000000000   F   F   F
  0.0000000000000000  5.2920001750000001  5.2920001750000001   F   F   F
  5.2920001750000001  3.5280001159999999  5.2920001750000001   F   F   F
  0.0000000000000000  7.0560002329999998  0.0000000000000000   F   F   F
  0.0000000000000000  0.0000000000000000  3.5280001159999999   F   F   F
 10.5414688724707801 10.7708462006535211  7.4047017892468494   T   T   T
 12.3480004070000007  0.0000000000000000  5.2920001750000001   F   F   F
  5.2920001750000001  8.8200002909999995  0.0000000000000000   F   F   F
  5.1377783290836794  7.0294683663656379 14.3505690125980134   T   T   T
 12.3480004070000007  3.5280001159999999  1.7640000579999999   F   F   F
 10.5951507990665643  2.7983472455540577 13.2047060311336324   T   T   T
  8.8200002909999995  0.0000000000000000  5.2920001750000001   F   F   F
  5.8931659011281408  4.6710867330765771  7.7547450295700768   T   T   T
  8.8200002909999995  8.8200002909999995  0.0000000000000000   F   F   F
  5.2920001750000001  0.0000000000000000  5.2920001750000001   F   F   F
  3.5280001159999999  5.2920001750000001  5.2920001750000001   F   F   F
  0.0000000000000000 12.3480004070000007  1.7640000579999999   F   F   F
  5.6847227805665517 12.5453656000486937  7.6582939012777000   T   T   T
 10.6013975687537094 -0.1213277320952366  7.4077647174654091   T   T   T
  9.6012914369937068  0.0736389158141816 13.6761662969958326   T   T   T
  3.5280001159999999  0.0000000000000000  0.0000000000000000   F   F   F
  0.8104381916971994 12.3346717506733956 12.3556422967887691   T   T   T
  7.5466273148656686 12.2533562648361123 14.1019777990241320   T   T   T
  3.0498172137664423  1.6317716834500620 14.0206214425747859   T   T   T
  4.9658706284343115  8.9286733518732593  7.3797739692275233   T   T   T
  0.0000000000000000  3.5280001159999999  3.5280001159999999   F   F   F
  7.0560002329999998  0.0000000000000000  3.5280001159999999   F   F   F
  7.0560002329999998 10.5840003490000001  0.0000000000000000   F   F   F
  6.9623376273918751 12.8588878544506517 10.1099097593210629   T   T   T
  1.7640000579999999 10.5840003490000001  5.2920001750000001   F   F   F
  9.4118202915128428  3.6536114875575718 11.1188342304051151   T   T   T
  3.9887535049251848  6.2626409794303592 11.8456093061465690   T   T   T
  8.8200002909999995  1.7640000579999999  3.5280001159999999   F   F   F
  5.2920001750000001  7.0560002329999998  5.2920001750000001   F   F   F
 10.5840003490000001  7.0560002329999998  3.5280001159999999   F   F   F
  2.0211836938630792  6.9112132011616758  9.1829693931021659   T   T   T
  3.5280001159999999  0.0000000000000000  3.5280001159999999   F   F   F
  3.5280001159999999 12.3480004070000007  5.2920001750000001   F   F   F
  3.5280001159999999  1.7640000579999999  1.7640000579999999   F   F   F
 10.7617811577857463 10.5911376204151573 11.2464188761444888   T   T   T
  0.7823621960824406  0.4042207536799714 13.8570832059300368   T   T   T
  1.7640000579999999 12.3480004070000007  0.0000000000000000   F   F   F
  5.2920001750000001  7.0560002329999998  1.7640000579999999   F   F   F
  0.0000000000000000  1.7640000579999999  1.7640000579999999   F   F   F
  3.5280001159999999  7.0560002329999998  0.0000000000000000   F   F   F
 12.3480004070000007 12.3480004070000007  0.0000000000000000   F   F   F
  7.0347735806063465 11.0574586831903581 12.0389091467850982   T   T   T
  8.9955243147435642 -0.3071243153360593  9.4582990506807647   T   T   T
  1.7562134046026354 -0.5135656685588761 10.3027694014846247   T   T   T
  5.1833409967275195 11.0049008843864549 13.8042375193311955   T   T   T
 10.5840003490000001  5.2920001750000001  1.7640000579999999   F   F   F
 -0.8392360968561636  2.3476013311788337 13.3206929148558562   T   T   T
  1.5662867782814964  5.6658671034772095 11.1957554920237428   T   T   T
  9.0692562165383617 12.4577808945601767 11.6541206898461773   T   T   T
  1.9839910249693833  8.7079366958748512  7.1262445296838290   T   T   T
  7.0560002329999998 12.3480004070000007  5.2920001750000001   F   F   F
 12.3595810805556852  0.0219356694798091 13.8938306154836795   T   T   T
  8.4842023302199223 12.3197343629780232  7.3243271167618405   T   T   T
  3.5280001159999999  3.5280001159999999  3.5280001159999999   F   F   F
  3.5280001159999999  8.8200002909999995  5.2920001750000001   F   F   F
  1.7640000579999999 12.3480004070000007  3.5280001159999999   F   F   F
  3.5282400680242310 10.8658422316163339  7.2281509261129413   T   T   T
  7.0560002329999998 12.3480004070000007  1.7640000579999999   F   F   F
  5.2920001750000001  8.8200002909999995  3.5280001159999999   F   F   F
  8.7058425460969175  5.2812710225678545  7.1639455211502190   T   T   T
 12.3883995698977341  5.3030202803499042  7.3129548906859174   T   T   T
 -0.1754287942916069 12.2364104364865742 14.5741814675787076   T   T   T
 11.9954577496015116  8.5954690559168334  7.1705813495425126   T   T   T
  7.0108989629029095 10.3624092331776652  7.2887789986083122   T   T   T
  1.7640000579999999  3.5280001159999999  5.2920001750000001   F   F   F
 12.6585817554241160 12.2072455534370157  7.4134875765981310   T   T   T
  3.7392276593136078  5.2448398789153501  9.5153406498723498   T   T   T
  0.0000000000000000 12.3480004070000007  5.2920001750000001   F   F   F
  5.2920001750000001 12.3480004070000007  0.0000000000000000   F   F   F
  0.1546131338763522  7.9009641760399907 13.5859060373590363   T   T   T
  2.2559812527789096  6.4920993018873769 13.5586184760955799   T   T   T
  3.5084234888203651  3.9263389504399937  7.4694173339781909   T   T   T
  3.7783286476460636  6.8389942592077677  7.3907358622861956   T   T   T
 10.5840003490000001 12.3480004070000007  5.2920001750000001   F   F   F
 10.2603386824645320  8.7703513963917086  9.4672428045981736   T   T   T
  5.6400133498193217  4.3472649256182585 12.2288798980154034   T   T   T
  3.1486087236218880  9.0038653002823654 13.9097537095716497   T   T   T
  8.0931248623795842  4.7210239719370959 12.8836758986393445   T   T   T
 12.1292210570318186  6.7748162590545666 13.4568847074217981   T   T   T
  8.8200002909999995 10.5840003490000001  1.7640000579999999   F   F   F
  8.8200002909999995  7.0560002329999998  1.7640000579999999   F   F   F
  0.0000000000000000  1.7640000579999999  5.2920001750000001   F   F   F
  0.9213220898465792 10.1956310801883880 13.5306285597930671   T   T   T
  7.0560002329999998  0.0000000000000000  0.0000000000000000   F   F   F
 12.3480004070000007  8.8200002909999995  0.0000000000000000   F   F   F
 10.1344388162573100  5.4137011988424311 14.0064412018234936   T   T   T
  5.2920001750000001  0.0000000000000000  1.7640000579999999   F   F   F
  0.0000000000000000  8.8200002909999995  5.2920001750000001   F   F   F
  0.0144442155072321  5.3407643762214425 13.0932259266559434   T   T   T
 10.5840003490000001  8.8200002909999995  5.2920001750000001   F   F   F
 12.3480004070000007  5.2920001750000001  3.5280001159999999   F   F   F
  1.3022273014208927  3.3468254904299437 13.5629539125303804   T   T   T
  0.0000000000000000  5.2920001750000001  1.7640000579999999   F   F   F
  0.0000000000000000  8.8200002909999995  1.7640000579999999   F   F   F
  5.2920001750000001 12.3480004070000007  3.5280001159999999   F   F   F
  5.2920001750000001  3.5280001159999999  1.7640000579999999   F   F   F
  7.1878360359870053 -0.2222149397318993 12.3112906484793196   T   T   T
  1.7164026378791890  1.5323232059888510 11.8691373246197038   T   T   T
 10.0256239733345005  8.1317049713045115 13.7199124581983192   T   T   T
  7.0560002329999998  7.0560002329999998  0.0000000000000000   F   F   F
 -0.4358792733374804  7.0250079851278349 11.2946256400183298   T   T   T
  8.8200002909999995  8.8200002909999995  3.5280001159999999   F   F   F
  7.2805856283055190  8.7851553502416735  9.2205344229765824   T   T   T
 10.5840003490000001  1.7640000579999999  5.2920001750000001   F   F   F
 10.5840003490000001  7.0560002329999998  0.0000000000000000   F   F   F
 12.4333042622982344 11.8629314885710038 12.6640125621918092   T   T   T
  5.2920001750000001  1.7640000579999999  3.5280001159999999   F   F   F
 10.5840003490000001  0.0000000000000000  3.5280001159999999   F   F   F
  0.1437245660428115  3.4841464120985020 11.2697690882554209   T   T   T
  8.8200002909999995 12.3480004070000007  0.0000000000000000   F   F   F
  0.4061578826974789  1.7034568062746023  9.5677383352583476   T   T   T
  7.0560002329999998  8.8200002909999995  1.7640000579999999   F   F   F
 12.2959402188184370  7.3455322224595312  9.2494842153377572   T   T   T
  1.7250518063081606  3.8477936623775877  9.3021779594093594   T   T   T
  4.8762623651228774 -0.0651235832271447  9.6933568682286282   T   T   T
 10.5840003490000001  5.2920001750000001  5.2920001750000001   F   F   F
  0.0000000000000000 10.5840003490000001  3.5280001159999999   F   F   F
 12.5910571675825764  3.4963303812311697  9.1503474828984963   T   T   T
  3.4527799604049907 11.9833774072799422  9.5922620149400739   T   T   T
 12.3480004070000007 10.5840003490000001  1.7640000579999999   F   F   F
 10.3555960950287425  4.8760917950717548  9.1168940449356555   T   T   T
  8.8200002909999995  5.2920001750000001  0.0000000000000000   F   F   F
  7.0560002329999998  3.5280001159999999  3.5280001159999999   F   F   F
 11.1488258027865417 -0.4231196037351512 11.4516364652810214   T   T   T
  2.6001230706164713 11.7998894873090876 14.4383588910301022   T   T   T
  7.0560002329999998  5.2920001750000001  1.7640000579999999   F   F   F
  1.7640000579999999  8.8200002909999995  3.5280001159999999   F   F   F
 10.5682251490896206  3.6029712190336718  7.0573814110859345   T   T   T
  5.1084239861883765 12.6389414796434973 11.7308498035507220   T   T   T
  0.4166355762356686  8.7028500573652252  9.3490697092628352   T   T   T
 12.3588939402723152  4.3177966700065857 14.4956080184235496   T   T   T
  1.7640000579999999  7.0560002329999998  5.2920001750000001   F   F   F
  5.2920001750000001  5.2920001750000001  0.0000000000000000   F   F   F
  9.3000514464468775 10.5597049154640974 13.2510283217711002   T   T   T
  7.0560002329999998  3.5280001159999999  0.0000000000000000   F   F   F
 12.3480004070000007  0.0000000000000000  1.7640000579999999   F   F   F
  9.2731429836913364  1.2034358644074272 11.3594271205324819   T   T   T
  8.8200002909999995 10.5840003490000001  5.2920001750000001   F   F   F
 10.5409605905006174  6.7762707511066225  7.3238802142205470   T   T   T
  1.6828944422092513  5.4316433643867024  7.2698033302496290   T   T   T
 12.3480004070000007 12.3480004070000007  3.5280001159999999   F   F   F
  7.4182490459638881  0.3233796451879200  7.5995872952424577   T   T   T
 12.2747001295279521  0.3698030286581080  9.2982849212016241   T   T   T
 12.3480004070000007  1.7640000579999999  0.0000000000000000   F   F   F
  7.9501013928480191  6.7532396833789976 14.2346360804345355   T   T   T
 -0.0833397211027903  5.5275672756594574  9.2519208314772552   T   T   T
  7.3605568827662182  0.6924324596953415 14.9062416954133905   T   T   T
  9.4626384780997093  6.3583881037816976 11.7507899359410821   T   T   T
  8.8200002909999995 12.3480004070000007  3.5280001159999999   F   F   F
  7.0560002329999998  7.0560002329999998  3.5280001159999999   F   F   F
  7.0560002329999998  8.8200002909999995  5.2920001750000001   F   F   F
  8.8200002909999995  1.7640000579999999  0.0000000000000000   F   F   F
 11.3110425577593361  8.0911153000248195 11.5608727528256665   T   T   T
  1.7640000579999999  1.7640000579999999  3.5280001159999999   F   F   F
 11.5627780430745535  1.8407165429904992 15.3736799913019997   T   T   T
  1.7640000579999999  8.8200002909999995  0.0000000000000000   F   F   F
  2.9026556915165651 -0.5272197567065644 12.6809004900706483   T   T   T
  0.0000000000000000 10.5840003490000001  0.0000000000000000   F   F   F
  1.7640000579999999  5.2920001750000001  3.5280001159999999   F   F   F
  1.7640000579999999 10.5840003490000001  1.7640000579999999   F   F   F
 12.3072840077997068  1.8895022917798283  7.2047348154397968   T   T   T
  3.5280001159999999 10.5840003490000001  3.5280001159999999   F   F   F
 11.9513166842160867  2.1907006417265662 11.1121796561009702   T   T   T
  5.0950794941322055  3.2797474980808534  9.9379392206849655   T   T   T
  3.0757166140319976  1.6268661976480452  9.7529032265093765   T   T   T
 12.3480004070000007  3.5280001159999999  5.2920001750000001   F   F   F
 10.8411513544448379 12.2858836354701264  9.4209565240033211   T   T   T
  0.0212327081525083  3.5306708302358065  7.1923813464057016   T   T   T
  5.4028862935681117  2.2110639799737521 14.4146371072448645   T   T   T
  1.2937770787183567 10.8313910153757380 10.3959291890804391   T   T   T
 -0.0398101007101657  7.2496612616200675  7.2378529501588469   T   T   T
  8.7781612006315832  6.8473598870889640  9.2280182534214994   T   T   T
  7.0560002329999998  5.2920001750000001  5.2920001750000001   F   F   F
  8.8200002909999995  3.5280001159999999  5.2920001750000001   F   F   F
  1.7640000579999999  7.0560002329999998  1.7640000579999999   F   F   F
  9.5448712812939505  0.5127539324761508 16.1419141947994618   T   T   T
 -0.1925736295123470 10.0155496881942643  7.3015474220375722   T   T   T
 12.2171532723683871  9.5396344285422732 13.8590042846777273   T   T   T
  8.8200002909999995  3.5280001159999999  1.7640000579999999   F   F   F
 12.2848114491786156 10.0101554355309279  9.1931036958981718   T   T   T
 12.3480004070000007  7.0560002329999998  5.2920001750000001   F   F   F
  6.6467078695002781  6.6157097073084685 11.9978491248827090   T   T   T
  3.5280001159999999 10.5840003490000001  0.0000000000000000   F   F   F
  1.7640000579999999  1.7640000579999999  0.0000000000000000   F   F   F
  8.8200002909999995  7.0560002329999998  5.2920001750000001   F   F   F
  3.5280001159999999  1.7640000579999999  5.2920001750000001   F   F   F
 11.8827692265913676  1.0164352795406280 12.3757863824562246   T   T   T
 12.2533783708627340  5.2775024511333770  9.1866546121546175   T   T   T
 10.2002020120132002  5.1674427000722831 10.7606725587340879   T   T   T
  6.8520285084211814  7.5382844633888313 15.2428268870850800   T   T   T
