Cr Co Ni  H 
 1.0000000000000000
    14.1120004653999995    0.0000000000000000    0.0000000000000000
     0.0000000000000000   14.1120004653999995    0.0000000000000000
     0.0000000000000000    0.0000000000000000   14.1120004653999995
 Cr  Co  Ni  H  
  85  85  86   4
Cartesian
  1.8127542421214453  1.7372082409275464  3.5910462890773145
 10.5965897358183732  1.6944815188070881  1.6796369373697830
  7.0670557782870214  1.6966078290991125 12.3196297651968809
 -0.1052717213235282  3.5431921903985333 -0.1318569064368917
 10.5024389029823073  1.7200482509005137 12.4370762146772798
 10.4554056582315678  8.8581857627290681  5.2453027937056564
 -0.0889667676364276  3.4924211211562275  3.5242904200126022
 12.2933610092179624  3.5613835383806038  8.9191151330354952
  1.7115187348275065 -0.0710685224907659  1.6678208499317277
  7.1448010685933454  7.0615363982778456  7.1289759730071998
 12.3214427759466378  8.9333258792469898 10.6234142414589812
 -0.0676034728844024  8.8810712143049546  8.8689453137962779
  8.8309153292143527  5.3067759493983582  3.4821134145985400
 12.3199653974299057 12.4145193136577703  7.0214803396606102
  7.0478347336265692  5.2924193704690978  5.2954858359376482
 -0.0768193854207161  1.7193668103500650  1.6297883598171057
 12.2567485276625945  1.6958134136742919  3.5164302524370368
  7.1071275939601923  5.2665919384738755 12.2459779473848549
 12.3322536014473361  5.3422575838902899  7.1437226594648182
  3.5648877953035587 10.5837712718730010 10.6657296039212497
  3.5483201659318113  8.9304745620909785  1.6751199181797762
  5.3861443476582451 12.3504611906782777  7.1136243511630415
  1.7325797946488233  8.9730685408230464  3.4047214370235843
  3.5195108769722903  5.2640352275703419  5.3976853041448383
  3.6082087775165226 -0.0260170350233831  7.1251571822292403
 12.2781631630899728  7.1041012034909077 12.3275872657158381
  5.2579304978692933  5.2085564712764860  0.0740417764545374
  7.1402486176730688 10.6719858945843420  3.4397393524528646
  8.8542196832202293  7.1054780191707758 12.3633474702155652
  5.2723597938501978  7.1494249010233482 12.2701347526870777
  7.0765687549579166  8.8318820968130929  1.7020622041819684
  3.5180443423399006  7.1236563597835074 10.5545077448820450
  3.4750945787545664  7.1046186122012402  7.1343978384341122
 10.5163763790014588 10.6311673051020659  7.0811915242890597
  8.7919154397958774 -0.0790023791163456  1.7384741337457319
  8.8073802450103429 12.3885973467680106 10.6711652574187443
  3.5041460256367802 -0.0322749107047922 10.5658397995617932
  3.4519457218343250  8.8646929009803692  5.2819530962870891
  1.7426679055247112  5.2331488452376975 10.6091033880269840
  7.0720449586323140  1.7134007437833443  5.3549921044660920
  3.5774562331370050  5.1967287455062321 12.2780272925029870
  8.8383335189403116  3.5134401157306447  5.3826200937615791
 10.5404092701781895  8.8489177812116804  8.8772723847982569
  0.0631623877738865 -0.0633453426466591 10.6568953621103155
 12.3521436968769773 -0.0398113373837217  8.8579519831399836
  7.0917292877940765 10.5867014539866773 10.6620294085638392
  1.7724006788636573 10.6111935501853853  8.9220140599711719
  8.8072178334775604  3.4683899393989077  8.8012249923195807
  3.5660692727087597 12.2850650896106899  1.7242622447672431
  3.5590806159021411  1.6692889031762008  1.6999204717052063
 -0.0307652926471989 10.6251281415502241  7.0674626520282686
 10.5954657337022162  7.0573910115913989  3.3736327807464925
 10.5130668841638411  3.5248342409381253 10.6601231494801176
 12.3283806926013177  1.7380478210088386 10.7336986243116179
 -0.0853645391988194  5.2974931624982284  1.6702478457939778
  7.1983571787773144  8.8465817064118877  5.2807405557133578
  6.9933761665181775  3.4949367623135297  3.4852106197174852
  5.3423976098409272  7.1123198433200248  5.3254351769808599
  3.5705841847752824  1.7988941024527501 12.3313723967866711
  5.3105673713795243  8.8380997994298678  3.4410151214346278
  3.6086173517307807 -0.0802294013209565 -0.1166707001965637
  0.0472946185804905  7.0678508799563593  7.1566899982326087
 10.6070908913654058  3.5388860229019641 -0.0091765432099500
 12.2723350100188995  7.0823841346490308  5.2970785178210580
 12.3430121534396307  8.8687673625741201  3.4107005645072559
  1.7579946632888086  7.0755233537069042  1.5887800030695989
  5.3061550065966907  1.6305239832763931  3.5266663957023967
 -0.0182382654442283  7.0881139137416200  3.4450578500258171
 10.5467721998025930  1.7019675447266542  5.3522057570266206
  1.7702537012199215  5.2491665669150409  3.4808370012261465
 -0.0492003899716945 -0.0617165147683589  3.4670604233855209
  3.4928499784969915 10.6392756480064783  7.1161320659707155
  3.5610804315065083  5.2224928768962195  8.8247437329174954
 -0.0549739599992358  1.6886558670999647  5.3547996489645699
 -0.0461084099646018  3.5152145662802825  7.1356186014816938
  1.8012222016896275  1.6717795772117663  7.1522923010796315
 10.5165209262817001 12.3660328480397101  8.8695832012471492
  7.0639932808149437 10.6648097863707711 -0.0558946647182065
  5.3615009962920483 10.6188784979449409  5.2963348680875360
  0.0385511774085758  5.2942348665579395  5.3051602400504150
  0.0538779241458375  8.8548270054584357  5.3087006693046543
  3.6415006687277187  3.5199011555371156  3.5267065814906751
  1.7683642580631420  3.4678741115862834  1.6592931832443851
 12.3080718446430399 10.6266983991500101  5.2111493774654019
  3.5297906821414959  7.0236103817180160  3.4739687977300617
  8.9360447036132271  8.8782329916138725 -0.0053542083416487
 12.3201560350460593 12.2890274965587167 10.6692926438662425
  3.5522137509348122 10.6166944459258232 -0.1476085871652532
 10.4766191622355223 10.6646921012895195  3.4500198304166942
  7.0794162140636425  8.8314785408806120 12.3974613419350472
  1.7173721895974146  5.2668026921587616  7.1662254578772000
  8.8075005448967030 -0.0980413124257841  5.2948524889695339
  8.8150819328018901 10.7173675295571869  5.3053439781760918
  1.7186620645821054  7.1405555250619486  8.8972204678970783
  5.2661896503375543  8.8606406503002813 -0.0580674614031497
 -0.0388630411137502  7.1249313882663019 -0.0965277716793696
  0.0185996188824926 12.3427848470194146  8.8736059527808706
 10.5663672095052288  5.2929985489502638  5.3506023479381355
  1.7943558851626313 -0.1346153818490808  5.2745896137635713
 10.5750827316401761 -0.1431386279465982  3.5480282040153988
  1.6682574639198149  8.7864609469003980 10.7039443642790211
  3.5136222073334942  5.2724722772627057  1.7114668885293511
  5.3183327163158118 12.4476035455554737  3.5426202869783325
  8.8045238355828115  3.5579002719456296 12.3827255736606983
  3.5200671631394238  7.0845289583704627 -0.0605818291163848
 10.5859014217725154 -0.0142715968036557 10.6795840298342402
  5.3031117035555191  3.5042858387220632  5.4119471505767223
  1.8064140764313963  3.5043161107363590  5.3424788759836153
  7.0298087070745776  0.0092102817291180 10.5311687788139370
  8.8781100940865691  7.0234680178542570  5.2877903832310906
  8.8155644028835933  5.2873911893630652  0.0900308347643813
  8.7941632553128102  3.4872661818989514  1.7496258795156765
 10.4534089404059571  7.0633037346883949  7.0774693489314533
 10.5455674975477063  8.9482357427686683 12.4035486393160870
  1.7375691139197635  1.7075303649617910 -0.1238101039342735
  5.3507781560597074  5.2478583924764761  7.1316458524214372
  7.1080518549428762 -0.0982684911912346  3.5651423057073788
  8.7851071501185842  0.0396235506022818  8.8115067900734392
 12.3491782254504994 10.6378748867288362  1.7019613197462884
  1.7655245346826804 12.2621309671570256  3.5217544752181160
 12.2849110233374006 12.3066331391747781  3.4632898235982581
  1.7117240739214405  7.1058360490861698 12.4329784821256784
  0.0437334331113957  1.6995815752639314 12.3741567556475776
 10.6164702158435205  3.5137378476886258  7.1361218264292559
  8.8711587940018823  1.7308847035807777  3.5035635282386663
  5.4020967339977766  1.7586048448413336  0.0578108127285456
  5.3665243217984751  5.2302337552980411 10.5046408473463977
  5.3563897363013124  1.7805175076468684 10.4783596523958327
 10.5754269815989161  7.0892426009658571  0.0651794431853875
  5.3378323179801956  8.8858561106041094  7.1495661986950934
 10.5272126004318665  1.6495303211433328  8.7972208416445614
 10.5839859274576114  3.5868034663342989  3.4723466926302877
  3.5452404389893508  3.4754587747197405  0.0168764589152815
  8.7116587403275574  1.7388296735328046  0.0278671002705922
 10.4962420371518679  5.2994858903735818 12.3540404395072425
  6.9832912825173503  3.5390746989657274  7.1153148025077444
  7.0755372028785795  5.3753115827340716  1.7455880279061402
  5.3590498701010114 10.5465751581576441  8.8440377782133268
 -0.0155321937473732  3.4921400296485499 10.6992320166268460
  8.8031840426284802  5.3544681620510213 10.5193088043580563
  7.0128762999039624 -0.0804657352965271 -0.0242973197683760
  3.5053059996417870 -0.0974628612480452  3.5967111336712629
  7.0644817048316328  7.1367029518709142 10.4761146290592801
 12.3434674964094242 -0.1262695346228436 12.3960961761061181
  1.7090173508341888  1.8478467383999011 10.5737775901906339
 12.3045364086739308  1.6996766748231453  7.0683954801217759
  8.8924958450494298 12.3486577173767422 -0.0878992536551266
  0.0432812060935375 12.3727384541249048  5.2514655837810968
 10.5116671819304290  5.4184625599115357  8.8735822974910636
  1.8249182185513675  5.2860702939228581 -0.1320349702936835
  1.7647231027315131  7.0747519638582599  5.3144973789361973
  5.4341366952941161 -0.0796831306386179  1.7268274823137104
 10.6135277602880240 -0.1281723753547167 -0.0475235221418736
  0.0147187672300691  7.0519900319691455 10.6054180566610725
  7.0307000738325369  5.2848232601812963  8.8875024677994006
  1.7370574903346647 10.7365161647661491  5.3080028950559477
  5.3644414173163577  8.8402696075632683 10.5198440646109486
  1.7336321400047017  8.9319254222412958 -0.1017724823676471
  8.8695637103933418  8.8188037676571085  3.4215062195612558
 12.2369286142425384  5.3737764429788735 -0.0622020455703945
  3.5540669663177806  8.8345606855729670  8.8358872654623521
  1.7034428363409504 12.4338220898275207  7.0716849805272872
  8.8438084562914323  7.0901528137946519  1.6465658207064866
  0.0128452147402587  8.8852784755509955 12.3764335662006975
  7.1202358681893765  0.0041682184538867  7.1314906912183531
 10.6366096900253222 12.3311294914380909 12.3738550153158613
  8.8236075510064644  1.6095561739875301 10.5485903563467183
  7.1056108361456127  8.8760616134493446  8.8331492198140147
  1.7083414904870582 12.2402778255380849 -0.1099464118263637
  5.3786103164901551 12.3776018613368333 10.5611477599337427
 12.3516164949834177 10.7041285199579832  8.8559519080462543
 -0.0233285976008146  5.3438342466966926 12.3455094852711191
  1.7344091138998903  3.4911195254766496  8.8970204526987633
  8.8193354967624664  8.8487890566478580  7.0872128891079811
  0.0145153202810682  1.7454064175277288  8.8740886001501948
 -0.0040246029460317  8.8534977739718901  1.6434352757769028
  1.7396998687052732 10.6392245813614075  1.6650527403059669
 12.3207439643875016  5.3055350362084894 10.6032062967819698
 12.2856263788143867  5.2848011071839309  3.5631422763378313
  8.8398820338466262 12.3565694649561486  3.5143783556800812
 10.5571122576606165 10.6335006277884752 10.6408019721321434
  3.5775036456606495  3.4709759318261559  7.0851404267373335
  7.0581059354032583  1.7323190692157278  8.8040369071092481
 10.5862547711973640  8.9013552912725800  1.7060447776064123
  5.3246985238237992 -0.0531208765869170  5.3065062639207241
 12.3355713059544101 10.6075265534049361 12.3803344957142176
  1.7652084308312412 -0.0456059479410552 12.3914079105328714
  5.3061810924381438 10.5710908121796230 12.3384016501791667
 -0.0180677395966383 10.6435398379191941 10.6396579618549225
  1.7593808294536522  3.4886041402108647 12.3662813794258710
  7.1147348179775660 10.5704965126378703  7.0855774529100550
 12.3559332035344802  7.0825860898192943  1.6533173846479408
 -0.0192844543530652 -0.0772618310499537 -0.0546207547074599
  7.0551914228391359 12.3539662449527317  1.7322446776962648
  5.3043492378899915  3.5004252846644466  1.7490082830231428
  8.8224441727453335  1.7142857208103377  7.0985616581492694
  5.2947144418376109  3.4912149146973612 12.3192956208379982
  8.8236970862185622  8.8523249291357224 10.6440579004941256
  8.7772443821580630 12.3786294164330339  7.0875407347271935
  7.0943776093017030 12.3641659080987019  8.8421327653763218
 -0.0160901568314548 12.3050999038300066  1.7147121464520736
  3.4993155095107626  8.8252666744035757 12.3741672057427117
  5.3160135394722214  1.7392435440399365  7.0875776825067209
 12.3488853998651020  1.6580651594911027 -0.1006454897158905
  7.0985012305724053  3.4814920130846971 10.5339616077526141
  0.0029459023274579 -0.0388727897406054  7.0617627084434655
  5.3169149435827698  5.3398752934708060  3.4657254084629661
 12.3149834007504833 -0.0654496192538676  5.2814270569535440
 10.6027999900608396 10.6256702894671715 -0.0020320300185268
 -0.0194972760545802 12.3050501832790875 12.3718481450537183
  3.5714307535971277  3.4735811282453093 10.5576415248911317
  5.2583077154464268  7.0580703911056686  1.7104541893695207
  7.0756792151599281  1.7156420189120909  1.7810641457805798
  7.0396425983152975 12.4111958598092507 12.3409967012872492
 12.3224951324926515  8.8697385696286322 -0.0168367142776158
 12.3149794786169871  3.5848453408595944 12.3167362398305613
 12.3522623302851819 12.3149906270846348 -0.0009178292580779
 -0.0252625889673606 10.5869127831226351 -0.0183329890996537
 10.6050147974806031  5.2911774507913192  1.7117226711921625
  7.1074495690793800  7.0907563098102599  3.5018607817298699
  8.8031855176705598  7.0894206170221645  8.8689309553567952
  5.3597088942443101  0.0022067485756790  8.8643059172119685
 12.3124059937009687 -0.0856034234135048  1.7101231936375405
 10.5462444245833566  7.0565032509243055 10.6118454144129331
 -0.0095126708797756  5.3018934292424698  8.9203190779673971
 10.5390320838392704 12.3503074592891089  5.2748877719016809
  8.8599677571333650  5.2874958927462670  7.1076417803097574
  3.5368621363746993 12.3390352369425536  5.2875887698444117
  5.3021802387683445 10.6310433555573329  1.7417514285754265
  3.5547225311242081 12.3267755431753692 12.3324676039582766
  8.7838373909676264 10.6081696463760924  8.8473542185705973
  5.3357979985906789  3.4870476921646940  8.8224373426163112
  7.1213564803610172  7.1471652821935381  0.0422377468416887
 12.3060341948592136  7.0583924228115809  8.8972032659015987
  5.3290931809710109 -0.0198715800489389 12.2890913787263116
  3.5590831965455059  1.7374846193603948  5.3028399451889507
  1.7637901813489127  8.8516072754197079  7.0719697945562690
  3.5551762153679922  1.7649099618811126  8.8823935909536722
  1.7356247739962967 -0.0576148236342743  8.8602139491012970
  7.0874133318788912  3.5242000050660338  0.0827030111563105
  7.1059405035748462 12.3711494396571577  5.3150570033576194
 10.5256247360047386 -0.0417136358774602  7.0637019832369701
  5.3111812507637222 12.3311632147264483 -0.0635863883409114
  3.5628626468169560 12.3375443099827784  8.8745810721382181
  3.5581886573537220 10.6396944015836894  3.5527141661900465
  8.8646053940218117 10.6467852022873526  1.6938862624353515
  5.3286202622402978  7.0961356930561097  8.8352287226276651
 -0.0091269056185842 10.6568526106747878  3.4773874177151352
 12.2992637742589626  3.5313965606258138  1.7551685770089154
  1.7339382775864132 10.5888019040765649 12.3344877669191320
  1.7604855829050430 12.3271427288113049 10.6485147186442362
 12.2812338146734668  8.8034265662084348  7.0541288844060182
 10.5960255561388337 12.3349757898257497  1.7212882412951329
 12.2480687976064875  3.5476970689831875  5.3169117411650140
  8.8682951423667724 10.5996601590207291 12.3889078459693422
  8.8165867200205970 -0.0225816575621837 12.4180211862968584
  6.2374922350333950  6.2661016961039584 13.3016274517542001
 12.4711169348930007  1.7485751218226309  8.7764620464892165
  1.9436007681487977  3.5956360987440887  7.0437466462860447
  6.9740843006678279  3.5038751870659008 12.3938700479610500
