Fe  H 
 1.0000000000000000
    14.2840003966999998    0.0000000000000000    0.0000000000000000
     0.0000000000000000   14.2840003966999998    0.0000000000000000
     0.0000000000000000    0.0000000000000000   32.0000000000000000
 Fe  H  
 256   4
Selective dynamics
Cartesian
  0.0000000000000000  0.0000000000000000  0.0000000000000000   F   F   F
  0.0000000000000000  0.0000000000000000  3.5710000989999999   F   F   F
 -0.0381771466686525  0.0016926835467962  8.0427529112236726   T   T   T
 -0.0035510331370750 -0.0072070666639401 12.3341514432622965   T   T   T
  0.0000000000000000  3.5710000989999999  0.0000000000000000   F   F   F
  0.0000000000000000  3.5710000989999999  3.5710000989999999   F   F   F
  0.0287982761978680  3.5536669830021550  7.8469214957696156   T   T   T
  0.0060450145666924  3.5641284712039951 12.3753023211401771   T   T   T
  0.0000000000000000  7.1420001979999999  0.0000000000000000   F   F   F
  0.0000000000000000  7.1420001979999999  3.5710000989999999   F   F   F
 -0.0033983753369535  7.1241518901312721  7.9549545293147164   T   T   T
 -0.0009132082441769  7.1492593715811443 12.3207014255951695   T   T   T
  0.0000000000000000 10.7130002980000008  0.0000000000000000   F   F   F
  0.0000000000000000 10.7130002980000008  3.5710000989999999   F   F   F
 -0.0056763947630504 10.7110846180993722  7.9415247650925895   T   T   T
  0.0000281611475024 10.7103810866347686 12.3083258120429075   T   T   T
  3.5710000989999999  0.0000000000000000  0.0000000000000000   F   F   F
  3.5710000989999999  0.0000000000000000  3.5710000989999999   F   F   F
  3.5818833495518434 -0.0313063553037781  7.9531190745747251   T   T   T
  3.5651668568868868 -0.0151920175149065 12.3161348386491660   T   T   T
  3.5710000989999999  3.5710000989999999  0.0000000000000000   F   F   F
  3.5710000989999999  3.5710000989999999  3.5710000989999999   F   F   F
  3.5989258239011437  3.5626385058165515  7.9775408826180936   T   T   T
  3.5846887375896537  3.5742627705936880 12.2979297325092904   T   T   T
  3.5710000989999999  7.1420001979999999  0.0000000000000000   F   F   F
  3.5710000989999999  7.1420001979999999  3.5710000989999999   F   F   F
  3.5713660295014491  7.1648132601738803  7.9480517548725151   T   T   T
  3.5765253882226382  7.1532349328050921 12.3180210190756156   T   T   T
  3.5710000989999999 10.7130002980000008  0.0000000000000000   F   F   F
  3.5710000989999999 10.7130002980000008  3.5710000989999999   F   F   F
  3.5386904610736343 10.7239036829729315  7.9454558322706559   T   T   T
  3.5733496153873050 10.7136323436656831 12.2764452885880218   T   T   T
  7.1420001979999999  0.0000000000000000  0.0000000000000000   F   F   F
  7.1420001979999999  0.0000000000000000  3.5710000989999999   F   F   F
  7.1588501470807406 -0.0337444808351457  7.9478559029568094   T   T   T
  7.1483697118341283 -0.0046904713928387 12.2877541930032770   T   T   T
  7.1420001979999999  3.5710000989999999  0.0000000000000000   F   F   F
  7.1420001979999999  3.5710000989999999  3.5710000989999999   F   F   F
  7.1209994762824653  3.5203647041108734  8.0134135909272839   T   T   T
  7.1376014805209218  3.5562564538881314 12.3028082047834975   T   T   T
  7.1420001979999999  7.1420001979999999  0.0000000000000000   F   F   F
  7.1420001979999999  7.1420001979999999  3.5710000989999999   F   F   F
  7.1453780594849583  7.2128461890488476  7.9474304645249694   T   T   T
  7.1464426068832214  7.1641370471088726 12.3419734511019996   T   T   T
  7.1420001979999999 10.7130002980000008  0.0000000000000000   F   F   F
  7.1420001979999999 10.7130002980000008  3.5710000989999999   F   F   F
  7.1461544243009696 10.7239888057698209  7.9458185101672703   T   T   T
  7.1449003749391355 10.7180249597864830 12.3134368668891607   T   T   T
 10.7130002980000008  0.0000000000000000  0.0000000000000000   F   F   F
 10.7130002980000008  0.0000000000000000  3.5710000989999999   F   F   F
 10.7291220561122262 -0.0029402996820353  7.9503671582245534   T   T   T
 10.7157004922465333 -0.0122018080439582 12.2861987520194553   T   T   T
 10.7130002980000008  3.5710000989999999  0.0000000000000000   F   F   F
 10.7130002980000008  3.5710000989999999  3.5710000989999999   F   F   F
 10.6725338875599967  3.5828152228301788  7.9509518545631153   T   T   T
 10.7034288837582228  3.5790653013531561 12.3069670374995734   T   T   T
 10.7130002980000008  7.1420001979999999  0.0000000000000000   F   F   F
 10.7130002980000008  7.1420001979999999  3.5710000989999999   F   F   F
 10.7074698045674790  7.1322777614972352  7.9531947833391632   T   T   T
 10.7101442994142833  7.1451237686296531 12.2848694524678361   T   T   T
 10.7130002980000008 10.7130002980000008  0.0000000000000000   F   F   F
 10.7130002980000008 10.7130002980000008  3.5710000989999999   F   F   F
 10.7442083916942952 10.7097262466184446  7.9416270280776207   T   T   T
 10.7078849347904796 10.7159658465651582 12.2838915670761750   T   T   T
  0.0000000000000000  1.7855000500000000  1.7855000500000000   F   F   F
 -0.0488606251210761  1.8232394924207351  5.6612080790998984   T   T   T
  0.0041736558368733  1.7861109192629401 10.1485123338175942   T   T   T
  0.0037891062618651  1.7822162285370029 14.5293869035833580   T   T   T
  0.0000000000000000  5.3565001490000004  1.7855000500000000   F   F   F
  0.0154637612314971  5.3460174538655449  5.7659368109342832   T   T   T
  0.0252504634900342  5.3736469483194567 10.2414859490175001   T   T   T
 -0.0052156499686200  5.3612793051965157 14.5166069793377552   T   T   T
  0.0000000000000000  8.9275002479999994  1.7855000500000000   F   F   F
 -0.0069689794036793  8.9170077674686379  5.7752828566952212   T   T   T
 -0.0076873580310818  8.9160892319357448 10.1219496792918129   T   T   T
  0.0039018587335331  8.9244310936177698 14.4764810658796357   T   T   T
  0.0000000000000000 12.4985003470000002  1.7855000500000000   F   F   F
 -0.0091320449670024 12.4956553431691493  5.7898785267268016   T   T   T
 -0.0042434200313185 12.4974588826067539 10.1330282355506682   T   T   T
 -0.0055564767503886 12.4983316758648701 14.5303698640403098   T   T   T
  3.5710000989999999  1.7855000500000000  1.7855000500000000   F   F   F
  3.6147775819234833  1.7507208314625309  5.7945533197920032   T   T   T
  3.5861733345894340  1.7684705612285976 10.1156947405114650   T   T   T
  3.5662706613822515  1.7847890979476648 14.4999857337191305   T   T   T
  3.5710000989999999  5.3565001490000004  1.7855000500000000   F   F   F
  3.5680399504733948  5.3934517165540887  5.6837879213856803   T   T   T
  3.5839142535226323  5.3713100306548167 10.1348508207060668   T   T   T
  3.5706077708523902  5.3572257067498992 14.4967814925644873   T   T   T
  3.5710000989999999  8.9275002479999994  1.7855000500000000   F   F   F
  3.5499714730146166  8.9521828028688191  5.8014962543622373   T   T   T
  3.5630933279457202  8.9419887311558277 10.1167116825682974   T   T   T
  3.5662001776633225  8.9278242911640611 14.4879260324725649   T   T   T
  3.5710000989999999 12.4985003470000002  1.7855000500000000   F   F   F
  3.5441688475557611 12.4950633530850634  5.7897168980261347   T   T   T
  3.5621604922623140 12.4913611215343394 10.1232213374330318   T   T   T
  3.5782352095869734 12.4959998036690632 14.5267978370435635   T   T   T
  7.1420001979999999  1.7855000500000000  1.7855000500000000   F   F   F
  7.1436205087618090  1.7168366751157764  5.8004864967011791   T   T   T
  7.1412148084166978  1.7615546670165609 10.1193865281108835   T   T   T
  7.1447301857394745  1.7832426667062458 14.5117288743691972   T   T   T
  7.1420001979999999  5.3565001490000004  1.7855000500000000   F   F   F
  7.1313104234778244  5.4407175567163941  5.6929638167193550   T   T   T
  7.1398229419401265  5.3728633072632874 10.1416359173329003   T   T   T
  7.1448261060199991  5.3541639425147309 14.4900153313872551   T   T   T
  7.1420001979999999  8.9275002479999994  1.7855000500000000   F   F   F
  7.1432246324283133  8.9539537947072567  5.7963100682045328   T   T   T
  7.1512785852526095  8.9528689419687506 10.1523292727033922   T   T   T
  7.1414618217472974  8.9271784412138455 14.5701789032204303   T   T   T
  7.1420001979999999 12.4985003470000002  1.7855000500000000   F   F   F
  7.1499958808362756 12.4708941905172424  5.7773332302595062   T   T   T
  7.1496515842102122 12.4885448561862820 10.1109496884379606   T   T   T
  7.1336267959068778 12.4991078741558272 14.5018023791351958   T   T   T
 10.7130002980000008  1.7855000500000000  1.7855000500000000   F   F   F
 10.6989638056754881  1.7802199693305254  5.8155870661878168   T   T   T
 10.7050026086863035  1.7879636408606436 10.1266279296583814   T   T   T
 10.7058121829865360  1.7786458178020130 14.5612066083668665   T   T   T
 10.7130002980000008  5.3565001490000004  1.7855000500000000   F   F   F
 10.6816725641892631  5.3734621497575992  5.7905690002802208   T   T   T
 10.6851299676735199  5.3614487832047484 10.1243229275198008   T   T   T
 10.7120543064761513  5.3607963079241774 14.4873068769697273   T   T   T
 10.7130002980000008  8.9275002479999994  1.7855000500000000   F   F   F
 10.7289846557764275  8.9471452938630804  5.7822811684389253   T   T   T
 10.7258332978879274  8.9329188061921947 10.1193970293272848   T   T   T
 10.7104192340724609  8.9331956582530587 14.4794504061606766   T   T   T
 10.7130002980000008 12.4985003470000002  1.7855000500000000   F   F   F
 10.7358871996249796 12.4791430248093551  5.7918472015418292   T   T   T
 10.7257456113305913 12.4905748317643841 10.1271639435167398   T   T   T
 10.7154765508613981 12.4911550854201021 14.5264122721979110   T   T   T
  1.7855000500000000  0.0000000000000000  1.7855000500000000   F   F   F
  1.8085013509113332 -0.0169824648734886  5.7013023072973672   T   T   T
  1.7833137276403073 -0.0088866316461548 10.1310100050765062   T   T   T
  1.7857186291056732 -0.0061608508365969 14.4841117538450916   T   T   T
  1.7855000500000000  3.5710000989999999  1.7855000500000000   F   F   F
  1.8018058605196308  3.5761121719184383  5.7834296017463371   T   T   T
  1.8172368106131418  3.5690547592197364 10.1196473806847465   T   T   T
  1.7853453248138837  3.5728780749514661 14.5017722803845484   T   T   T
  1.7855000500000000  7.1420001979999999  1.7855000500000000   F   F   F
  1.7966801610750338  7.1356190320730590  5.8125058956459164   T   T   T
  1.7878945587786610  7.1396065448898653 10.1181048313154065   T   T   T
  1.7855687300125782  7.1400601585259871 14.5522993587986953   T   T   T
  1.7855000500000000 10.7130002980000008  1.7855000500000000   F   F   F
  1.7572261631230208 10.7253229283395903  5.8044268305427211   T   T   T
  1.7708608103981016 10.7121586750994311 10.1220917788009057   T   T   T
  1.7856859453999243 10.7188716105655466 14.5157842501208627   T   T   T
  5.3565001490000004  0.0000000000000000  1.7855000500000000   F   F   F
  5.3530266641207778 -0.0355464069966765  5.8059149621094130   T   T   T
  5.3587027715539151 -0.0321015171039001 10.1663607668398281   T   T   T
  5.3561944433865021  0.0039580425246100 14.5747486125414554   T   T   T
  5.3565001490000004  3.5710000989999999  1.7855000500000000   F   F   F
  5.4138182261371055  3.5289679051065783  5.6950761397500411   T   T   T
  5.3733799318766717  3.5665636782979107 10.1352726597260503   T   T   T
  5.3563470448656743  3.5697593545554369 14.5048653006403896   T   T   T
  5.3565001490000004  7.1420001979999999  1.7855000500000000   F   F   F
  5.3584184552451761  7.2020699440556362  5.8032604286133296   T   T   T
  5.3615141385377001  7.1692240958600832 10.1307374502753618   T   T   T
  5.3567335629344557  7.1435691195756226 14.5227942444684093   T   T   T
  5.3565001490000004 10.7130002980000008  1.7855000500000000   F   F   F
  5.3491856837970300 10.7199540805407043  5.7818030844333128   T   T   T
  5.3562144112983070 10.7149339360630140 10.1137049836448689   T   T   T
  5.3550629096742401 10.7056774841386790 14.4833246051833289   T   T   T
  8.9275002479999994  0.0000000000000000  1.7855000500000000   F   F   F
  8.9385990817321304 -0.0423509193174676  5.7912554235219673   T   T   T
  8.9377419122998418 -0.0212801123828187 10.1184665897613932   T   T   T
  8.9261540258692538 -0.0102355057132988 14.4853396593170576   T   T   T
  8.9275002479999994  3.5710000989999999  1.7855000500000000   F   F   F
  8.9252190770260249  3.5242959947521557  5.6810813843633357   T   T   T
  8.9187573392546984  3.5614780361027640 10.1306142243057558   T   T   T
  8.9320081231398127  3.5705524820087917 14.4842975772217670   T   T   T
  8.9275002479999994  7.1420001979999999  1.7855000500000000   F   F   F
  8.9304919024730118  7.2154775054811422  5.7910800368272568   T   T   T
  8.9229434872094657  7.1634671273663528 10.1248820073346693   T   T   T
  8.9284624855098293  7.1447967162469324 14.5232662217127988   T   T   T
  8.9275002479999994 10.7130002980000008  1.7855000500000000   F   F   F
  8.9509845708082469 10.7159268916114669  5.7748731494625449   T   T   T
  8.9414236631981154 10.7150471849877302 10.1098863604105755   T   T   T
  8.9215782598267293 10.7168830740842669 14.4935826630298301   T   T   T
 12.4985003470000002  0.0000000000000000  1.7855000500000000   F   F   F
 12.4790889544746086 -0.0078614931891448  5.8015979934025239   T   T   T
 12.5021313479614413  0.0110242255464060 10.1371837679920400   T   T   T
 12.4940794746182231  0.0035053918892147 14.5020191912581069   T   T   T
 12.4985003470000002  3.5710000989999999  1.7855000500000000   F   F   F
 12.4593125046471851  3.5781097137367870  5.7698937911831019   T   T   T
 12.4667932086810804  3.5529565279498150 10.2334881008308951   T   T   T
 12.4907383379870520  3.5627814420005182 14.5373777433934457   T   T   T
 12.4985003470000002  7.1420001979999999  1.7855000500000000   F   F   F
 12.4964962268023623  7.1257095322102471  5.7838482262851283   T   T   T
 12.4900514193370356  7.1431622382767923 10.1305891367931498   T   T   T
 12.4936568099187486  7.1491542264173749 14.5542488007546034   T   T   T
 12.4985003470000002 10.7130002980000008  1.7855000500000000   F   F   F
 12.5238698991574058 10.7091653014019226  5.7771545294143047   T   T   T
 12.5021392028656528 10.7123900611044522 10.1337739508158009   T   T   T
 12.5011182958505476 10.7078580761838680 14.5522747728046475   T   T   T
  1.7855000500000000  1.7855000500000000  0.0000000000000000   F   F   F
  1.7855000500000000  1.7855000500000000  3.5710000989999999   F   F   F
  1.8342970432774619  1.8085613389684829  8.0084653740890595   T   T   T
  1.7951896641052767  1.7814286438750195 12.2546654111358500   T   T   T
  1.7855000500000000  5.3565001490000004  0.0000000000000000   F   F   F
  1.7855000500000000  5.3565001490000004  3.5710000989999999   F   F   F
  1.8067526879756675  5.3491019742117114  7.9471649839214864   T   T   T
  1.7931026358496538  5.3562760214204497 12.3069844243326738   T   T   T
  1.7855000500000000  8.9275002479999994  0.0000000000000000   F   F   F
  1.7855000500000000  8.9275002479999994  3.5710000989999999   F   F   F
  1.7705658691995889  8.9138069779136604  7.9523920271985835   T   T   T
  1.7874893117192774  8.9372280768563055 12.2967736757978408   T   T   T
  1.7855000500000000 12.4985003470000002  0.0000000000000000   F   F   F
  1.7855000500000000 12.4985003470000002  3.5710000989999999   F   F   F
  1.7605178176159504 12.4968391314596303  7.9459564002908873   T   T   T
  1.7830572956615536 12.4924742499710391 12.3023573166959554   T   T   T
  5.3565001490000004  1.7855000500000000  0.0000000000000000   F   F   F
  5.3565001490000004  1.7855000500000000  3.5710000989999999   F   F   F
  5.3622131711586132  1.7386436496314777  7.9551148499264634   T   T   T
  5.3494803797114470  1.7718884584036703 12.3239626663276987   T   T   T
  5.3565001490000004  5.3565001490000004  0.0000000000000000   F   F   F
  5.3565001490000004  5.3565001490000004  3.5710000989999999   F   F   F
  5.4182755745393267  5.4234101627804181  8.0445157857877891   T   T   T
  5.3674900450088483  5.3719878074229008 12.3095456871560494   T   T   T
  5.3565001490000004  8.9275002479999994  0.0000000000000000   F   F   F
  5.3565001490000004  8.9275002479999994  3.5710000989999999   F   F   F
  5.3385812314621370  8.9526052630140676  7.9447850962621898   T   T   T
  5.3507062048199057  8.9386302045159702 12.2852681659728393   T   T   T
  5.3565001490000004 12.4985003470000002  0.0000000000000000   F   F   F
  5.3565001490000004 12.4985003470000002  3.5710000989999999   F   F   F
  5.3549576309675349 12.4710730691805836  7.9504997836829565   T   T   T
  5.3620340580021821 12.4887521061403621 12.3186465256528486   T   T   T
  8.9275002479999994  1.7855000500000000  0.0000000000000000   F   F   F
  8.9275002479999994  1.7855000500000000  3.5710000989999999   F   F   F
  8.9246436285340351  1.7518767352259290  7.9565307223178934   T   T   T
  8.9260951182473285  1.7755674257521878 12.3176872611762871   T   T   T
  8.9275002479999994  5.3565001490000004  0.0000000000000000   F   F   F
  8.9275002479999994  5.3565001490000004  3.5710000989999999   F   F   F
  8.9039020471985655  5.4011341924184455  8.0151855709023678   T   T   T
  8.9117396134623501  5.3619614709041246 12.2835204031328544   T   T   T
  8.9275002479999994  8.9275002479999994  0.0000000000000000   F   F   F
  8.9275002479999994  8.9275002479999994  3.5710000989999999   F   F   F
  8.9514712304112916  8.9586995601871777  7.9443501146421447   T   T   T
  8.9372428367929970  8.9376220502904378 12.2987177636554659   T   T   T
  8.9275002479999994 12.4985003470000002  0.0000000000000000   F   F   F
  8.9275002479999994 12.4985003470000002  3.5710000989999999   F   F   F
  8.9508941831792281 12.4768067522586463  7.9349058713392218   T   T   T
  8.9259576788488229 12.5000796666146954 12.2914114861385926   T   T   T
 12.4985003470000002  1.7855000500000000  0.0000000000000000   F   F   F
 12.4985003470000002  1.7855000500000000  3.5710000989999999   F   F   F
 12.4744159186103332  1.8062325717952232  7.9526874441645861   T   T   T
 12.4955556071739498  1.7847056104256078 12.3318247514170682   T   T   T
 12.4985003470000002  5.3565001490000004  0.0000000000000000   F   F   F
 12.4985003470000002  5.3565001490000004  3.5710000989999999   F   F   F
 12.4653724601069325  5.3618193979746920  7.8622063234384916   T   T   T
 12.4948771516964570  5.3618717796490962 12.3691031574009731   T   T   T
 12.4985003470000002  8.9275002479999994  0.0000000000000000   F   F   F
 12.4985003470000002  8.9275002479999994  3.5710000989999999   F   F   F
 12.5148467633737770  8.9081459633344995  7.9377765796721462   T   T   T
 12.4946769978056249  8.9345666376307467 12.3150024472861332   T   T   T
 12.4985003470000002 12.4985003470000002  0.0000000000000000   F   F   F
 12.4985003470000002 12.4985003470000002  3.5710000989999999   F   F   F
 12.5168733041967233 12.5051457803733257  7.9465362860805824   T   T   T
 12.4967003988390832 12.4922181193784745 12.3393572474526714   T   T   T
 13.4000695479716185  4.4538235471730685  9.0542074334529712   T   T   T
  0.8586557779867560  0.9057272746896878  6.8485276208118391   T   T   T
  4.5455720428345154  4.5194504931862882  6.8451782766069309   T   T   T
  8.0084110674161106  4.4596246694611335  6.8372621797096151   T   T   T
