Cu  H 
 1.0000000000000000
    14.5804395675999992    0.0000000000000000    0.0000000000000000
     0.0000000000000000   14.5804395675999992    0.0000000000000000
     0.0000000000000000    0.0000000000000000   14.5804395675999992
 Cu  H  
 256   4
Cartesian
 -0.0029422227765648 -0.0014150125551736  0.0005392532749501
 -0.0061660618440967  1.8197501576554829  1.8160749937109215
  1.8190058750109974 -0.0007632853145537  1.8194689424733856
  1.8212944715983641  1.8131335221356975 -0.0043502025548607
 -0.0060351213680177  0.0036681869796169  3.6358587186097506
 -0.0074087135139808  1.8116201367091034  5.4688525950504934
  1.8176198602252374  0.0000085128023720  5.4572950017530442
  1.8185062451967917  1.8165342540126872  3.6403439381147282
 -0.0095499961634260  0.0001748633736357  7.2906941022861647
 -0.0085516645272534  1.8134636447499606  9.1173228007175595
  1.8153970346644432 -0.0035509691986526  9.1221133301365533
  1.8152051847487749  1.8095586467335250  7.2921433802274116
 -0.0064243986477487  0.0011964527549467 10.9428117850447126
 -0.0051235026577335  1.8160667965951691 12.7592676637064937
  1.8190330324589001 -0.0043332055029011 12.7602999641048669
  1.8163809995059084  1.8144891847329601 10.9402149148151917
 -0.0061573367422509  3.6277485659807653 -0.0118484894850257
 -0.0577915269067070  5.4088657904693518  1.7666151046116707
  1.8272203650038437  3.6209300252682670  1.8091385266699989
  1.8280123368582022  5.4575392502755582 -0.0180864673681656
 -0.0143318238134034  3.6194938998280817  3.6485459265371598
 -0.0176538460881049  5.4585436683032524  5.4806027164623172
  1.8109988953275256  3.6281151924450472  5.4680294261818982
  1.8560242037024572  5.4122066888831748  3.6799008570965031
 -0.0048187556431081  3.6361589390345030  7.2940475666667552
 -0.0002646287669209  5.4697655665812475  9.1144211459280662
  1.7979536478295004  3.6322845679774591  9.1227459225651391
  1.8028434652366672  5.4744329182461762  7.2796324401359032
 -0.0089097679675976  3.6410067531925825 10.9433595383430848
 -0.0102299119567668  5.4641037211789145 12.7667098724339390
  1.8156866268192111  3.6341815994350082 12.7612869889436435
  1.7984122840447052  5.4675720178230787 10.9610709499959516
 -0.0135768138427999  7.3001271020832847 -0.0164696541800629
 -0.0120561335058264  9.1353172693079738  1.8118734238105618
  1.8758711134728783  7.3481121453418812  1.7592502088400632
  1.8195369760143267  9.1330730325000964 -0.0123059691880303
 -0.0644194287335515  7.3385011623532526  3.6892479356086283
 -0.0212954283609683  9.1184494668983493  5.4644729369551515
  1.8180752478157287  7.3019135911932072  5.4695269706966982
  1.8246253272545079  9.1324938267933398  3.6436798538724977
 -0.0150904494019980  7.2948393067618564  7.2888259926749797
 -0.0194671491772417  9.1060950441131894  9.1285290731851827
  1.8040159828494471  7.3065005690629130  9.1211144930630006
  1.8077912273159240  9.0860553272191833  7.2924717351125050
 -0.0093260431715241  7.2900640226917455 10.9484070011634387
 -0.0085343942137028  9.1231670641324474 12.7583030128062838
  1.8152113827696581  7.2983529293070841 12.7696709690022736
  1.8116272199605488  9.1180773837561482 10.9492074065588767
 -0.0053578332232934 10.9447201492736710 -0.0042781998435428
 -0.0029959646704208 12.7570771697975918  1.8206095246876495
  1.8208906072210831 10.9395759724850556  1.8195146999798146
  1.8192152463057651 12.7588599220798926  0.0011577085628549
 -0.0107344095740780 10.9394597238675875  3.6406431696664225
 -0.0161816014118168 12.7713359518448044  5.4525523336048574
  1.8203343831968870 10.9477815647078369  5.4244527983428066
  1.8188491323047702 12.7628300646161872  3.6372568731101800
 -0.0526791317061807 10.9436423878109625  7.2926292002103690
 -0.0168075757701170 12.7710971144981720  9.1272094397172729
  1.8172442363781369 10.9425897991383128  9.1632529059367620
  1.8196883584441454 12.8096537092015001  7.2913613997292686
 -0.0116156158935972 10.9424423820924304 10.9407853601038862
 -0.0043266156599715 12.7612736802442424 12.7592919176135897
  1.8187131347774803 10.9450679605173526 12.7581968318061847
  1.8191134117872425 12.7658607238985393 10.9407751028170939
  3.6440469993698548 -0.0045242166598168  0.0011674738209336
  3.6491704535923359  1.8139597383878385  1.8151497545644155
  5.4716691224816332 -0.0048588603068502  1.8159745682664485
  5.4709794798717306  1.8175646151637197 -0.0005041573989377
  3.6448919256334866  0.0010924138153929  3.6346820885083639
  3.6469266057593712  1.8056911624505319  5.4573201683058370
  5.4774433907107802 -0.0028307188514587  5.4588915772260913
  5.4736900497903953  1.8082147953431282  3.6312585591896478
  3.6509871921252532  0.0012681889149714  7.2899462387197502
  3.6359843104170304  1.7960190082153840  9.1247176728413972
  5.4779736636712615  0.0053426097341659  9.1188251087638985
  5.4809826315126911  1.7985703896617360  7.2807783827649342
  3.6458640708355547 -0.0035978112799980 10.9472488982461016
  3.6433791420679218  1.8128119365207911 12.7664769111829024
  5.4718936885181115 -0.0063025697372629 12.7659879419492874
  5.4720863743548014  1.7990890986330195 10.9599272430874919
  3.6495516156389405  3.6389069697186325 -0.0051261003286819
  3.6647812218083926  5.4569190792200928  1.8121641796475532
  5.4747607039962194  3.6376705203537694  1.8198082542138416
  5.4753858105430133  5.4644504295722278 -0.0095867351488275
  3.6508309240107661  3.6250237120233755  3.6359588597706884
  3.6323089283130146  5.4750668739245967  5.4354030723336431
  5.4836315496520118  3.6133229157197149  5.4272104498223959
  5.4712337585137361  5.4634077541658579  3.6399578117844698
  3.6129806772188968  3.6017352685110553  7.2516606063182731
  3.5635663290988711  5.5188699155495646  9.1793688642002458
  5.5236452647428909  3.5605897004090998  9.1782874239732362
  5.4739737873032164  5.4633310552352405  7.1445428128075994
  3.6341920027835029  3.6306193293098188 10.9586286442484813
  3.6433117886766713  5.4636037307751000 12.7596573882209139
  5.4718562987159292  3.6339339669486899 12.7630023254674576
  5.4724337562330776  5.4642318020296692 10.9757344276533111
  3.6604478243848346  7.2920933772463075 -0.0154128115048185
  3.6580687900206863  9.1317506024742503  1.8142275719440872
  5.4710030939084779  7.2923640883628469  1.8183349260719825
  5.4746242440275017  9.1201970190745989 -0.0027875093845070
  3.6567578274037418  7.3026958476393897  3.6302214577868388
  3.6545384482790673  9.1163998393176602  5.4465013923866392
  5.4709442485376405  7.3136858126965629  5.4275396338931081
  5.4789159434337975  9.1283323891556432  3.6292702611820640
  3.6285238606513679  7.3181550176185928  7.2761791618279812
  3.6393402152103000  9.1184498849086619  9.1320972516182461
  5.4246005421639030  7.3656153463848950  9.1836599486173824
  5.4655497196156695  9.1311852347715021  7.2808882241438724
  3.6305301867982398  7.3032059026148684 10.9704189360227815
  3.6442871479738219  9.1262346777626409 12.7636924597043517
  5.4739606819814943  7.2985372880279646 12.7615763138204983
  5.4751078824697936  9.1354198865047884 10.9614495798423057
  3.6470944145159261 10.9452775788610008 -0.0019572063818751
  3.6436645525272686 12.7593112874499575  1.8199078266704460
  5.4727040243291727 10.9439687779488732  1.8163860020137534
  5.4713479877604705 12.7597249217495285  0.0007930261064095
  3.6532227346738595 10.9471385558205281  3.6380175195775757
  3.6577602002578513 12.7751037545362323  5.4534466439521543
  5.4722407708800649 10.9449227942914611  5.4571314980852366
  5.4755355384369588 12.7623483800395086  3.6350951493266148
  3.6861163079862251 10.9450770294619719  7.2898087096408064
  3.6590067418603391 12.7740061962787053  9.1267054348626164
  5.4699126661662447 10.9367569694349758  9.1211372929488519
  5.4733051116499363 12.7651229779844542  7.2919800882599608
  3.6474674214966933 10.9447957348387224 10.9431261243264757
  3.6449518190223902 12.7602696492894481 12.7611790614240252
  5.4707946454931937 10.9457300582722947 12.7633839854922275
  5.4745990938740627 12.7616590177952123 10.9409117054472578
  7.2948295973372099 -0.0044445446325724  0.0009018567564560
  7.2956662023409660  1.8157510505512868  1.8154100812809990
  9.1155340269040046 -0.0034489222715328  1.8189335853170472
  9.1161008508670864  1.8158054854629124  0.0013015908842696
  7.2967622001112975 -0.0046644487240213  3.6379514893339642
  7.3022800596905428  1.8088509790592251  5.4553985284343272
  9.1166994725507493 -0.0051442537256649  5.4648422887425978
  9.1171353803622424  1.8145994526544873  3.6379864383604668
  7.2995531023735287 -0.0066201740785947  7.2891963741474637
  7.3135029237020523  1.8048499165892562  9.1179739778295978
  9.1185934061449121 -0.0052277818173987  9.1156325377238101
  9.1256608781755251  1.8078253644971634  7.2867984883125265
  7.2983735704783541 -0.0051744343658395 10.9423471194622763
  7.2984767266396391  1.8121879135208003 12.7680462176044234
  9.1170837437933656 -0.0051131911669545 12.7631415897328484
  9.1229423915393948  1.8109463855780377 10.9453707360860761
  7.2936598378121342  3.6428659291363399 -0.0009245288947352
  7.2912247029793598  5.4671665990958722  1.8219000446697726
  9.1180357613032417  3.6419756730784441  1.8159742628711384
  9.1160467304509361  5.4671975031141615  0.0012140050268235
  7.3026757354680516  3.6338512603116073  3.6268145945252557
  7.3205587213803796  5.4563077187646316  5.4236597704725806
  9.1238842495704109  3.6353018606602014  5.4553330828706672
  9.1277071776194365  5.4663504501544011  3.6304423039357969
  7.3217531950688048  3.6138927998794639  7.2721121829592530
  7.3742508787981915  5.4118758923226222  9.1787486686952402
  9.1296351010924806  3.6231889553055376  9.1178497738499793
  9.1324512263811854  5.4573304838361105  7.2808595061237558
  7.3102046215522201  3.6249334786504188 10.9652883772125591
  7.3021730416725283  5.4654762591918118 12.7630107861291169
  9.1210089114274666  3.6370153884124377 12.7667620459333868
  9.1351401549296138  5.4650279576368428 10.9585373693322090
  7.2928070546645811  7.2906690854850442 -0.0008524124301044
  7.2951481717020643  9.1170368140348437  1.8172203372427924
  9.1188740125379368  7.2918288993487019  1.8183509157629871
  9.1142937554041215  9.1169179509278901  0.0008293622900671
  7.2988703561081527  7.2963379553738292  3.6335340025948568
  7.2967497453614740  9.1265455886944675  5.4548347139405600
  9.1262417761493904  7.2931771716611618  5.4540964063892892
  9.1191858497874030  9.1194075998491968  3.6380818071408854
  7.3324416066077838  7.3294734368116821  7.2471283520065946
  7.3039870518669243  9.1386404934384480  9.1233917369938329
  9.1359894508123478  7.3019003843669976  9.1236525921132898
  9.1206434911325616  9.1238644798967616  7.2909608736546963
  7.3068266071251893  7.3019702260716111 10.9600943837822289
  7.2985346792004817  9.1229507162306920 12.7662842882864602
  9.1198425137295001  7.2945259164210361 12.7656883587296885
  9.1185940467576128  9.1210116982757885 10.9415666166365320
  7.2952616250585001 10.9414670252247692  0.0008547147766833
  7.2961327834823990 12.7589532043192069  1.8183536047116033
  9.1141839351547063 10.9409596572405157  1.8192535296823626
  9.1154993331726946 12.7586297926612442  0.0000207415609139
  7.2968647245354283 10.9418584697602448  3.6403563041622680
  7.2936992652009458 12.7579948369345875  5.4661698266476302
  9.1166652669591048 10.9420390377421768  5.4648558711167325
  9.1152075063014717 12.7592268236890831  3.6411257614979475
  7.2926312308879604 10.9394541775250751  7.2892047165915752
  7.2922397444863147 12.7573705780015807  9.1145912597314727
  9.1196251195542679 10.9438516224666973  9.1155579685666925
  9.1155776422325072 12.7570190437322903  7.2907106772531733
  7.2958506142225286 10.9451158343256214 10.9418703888706315
  7.2957609458821802 12.7593148548966653 12.7632644984316439
  9.1160267636001979 10.9400338277041662 12.7606857808978162
  9.1165168295521966 12.7583424724593701 10.9385229491391325
 10.9344980602751161 -0.0034034183842968  0.0001362721263748
 10.9333209440065069  1.8152521139210711  1.8182421914113500
 12.7552618548863119 -0.0007893456650995  1.8188560234114013
 12.7529066353398353  1.8145746873786650 -0.0026983076313951
 10.9335826060631263 -0.0034041272106503  3.6406947271227041
 10.9357771894092082  1.8168821293985953  5.4654149300662986
 12.7512333077208897  0.0002458398968197  5.4633703921567172
 12.7496516059533658  1.8139545136857043  3.6418447389821753
 10.9373363483281132 -0.0050217924502814  7.2904776552812551
 10.9373478444609145  1.8166147634006058  9.1159930839109489
 12.7508452770097520  0.0006446766406446  9.1172923209946397
 12.7564076727178701  1.8175237266863891  7.2919539304165228
 10.9364466873765860 -0.0038176383930536 10.9395629898083460
 10.9364835109499214  1.8153106021893948 12.7615654566285119
 12.7548738194422704 -0.0025036714598041 12.7604703636768715
 12.7548896944602586  1.8178484801058692 10.9381303244881511
 10.9341930981359017  3.6380127784495047 -0.0018082249314338
 10.9382604122603571  5.4645029036739947  1.8150636940484217
 12.7429952575969647  3.6275319663952881  1.8180129197878450
 12.7429766505455930  5.4646730358732611 -0.0114320136430497
 10.9330338060688472  3.6350362645986150  3.6401174946631798
 10.9335895273816881  5.4619017534681573  5.4660860493590029
 12.7525754357291063  3.6377726103722154  5.4702987467745761
 12.7351256749275521  5.4558506751798470  3.6471896512383295
 10.9379150321446268  3.6358122271612801  7.2904793217752735
 10.9297560043580138  5.4619818589291285  9.1177707060158291
 12.7573287946686023  3.6432029962555914  9.1155527406852386
 12.7504739298543512  5.4643150552074458  7.2972991642910072
 10.9380877502543257  3.6380042987702561 10.9405090886008391
 10.9373754899834701  5.4644595668932006 12.7623346863070140
 12.7523291650920765  3.6380875010404004 12.7587181017004490
 12.7553714706547385  5.4653189963110265 10.9381710724485846
 10.9315153956546034  7.2941158910885235 -0.0037378576078211
 10.9302133353413513  9.1219321528375215  1.8163588495061858
 12.7358494584895539  7.2995667599320253  1.8103328658057816
 12.7514004299379540  9.1209450700679735 -0.0028691649358035
 10.9371279226668836  7.2944902086258852  3.6404484655070308
 10.9336836796131358  9.1215574834534348  5.4667963130533224
 12.7361634383952804  7.2882261748417072  5.4773923789321675
 12.7386534322118656  9.1279877537862433  3.6375711061189913
 10.9313601297017549  7.2935914168212816  7.2919138924355344
 10.9385876725839193  9.1212404562002973  9.1170229064133999
 12.7494016532284959  7.2856681561917984  9.1163739063396303
 12.7473032511966640  9.1143703589118097  7.2945895745822176
 10.9386120574024730  7.2926707252031546 10.9424433100246468
 10.9337021370136505  9.1186936771025753 12.7611443268075639
 12.7497984296572966  7.2931441840886011 12.7588513853263663
 12.7504336064911854  9.1155566323761885 10.9418628400594145
 10.9341732021956783 10.9400912949095162 -0.0010061834995679
 10.9330379089047778 12.7603763125652740  1.8187402038201606
 12.7514284356993368 10.9440538682904851  1.8180926832568587
 12.7554667155958743 12.7601639896761245 -0.0002204977473563
 10.9333122558617273 10.9430008197247517  3.6420782758680201
 10.9351624192087318 12.7600711307043824  5.4654865124483800
 12.7494690120834431 10.9440698016032183  5.4628310391936035
 12.7519345700037974 12.7608990280369898  3.6372018825968850
 10.9357568913930372 10.9407854344986877  7.2911660783910968
 10.9368109688124768 12.7596434200652631  9.1155705927058115
 12.7522272824196499 10.9414693082259920  9.1216803876621082
 12.7523081483228555 12.7657166742130492  7.2911033673845189
 10.9352420018088488 10.9399262917530198 10.9387948999099489
 10.9344094491683581 12.7586403438146672 12.7612826138497404
 12.7542081959672089 10.9406889693343370 12.7597301613923531
 12.7509037517772832 12.7613244443847709 10.9431039546873770
  0.9027371236597653  6.3893428611042768  2.7134800634222329
  1.8241010047324364 10.9460859171887073  7.2895083752237735
  4.5731394875460394  4.5689794264419712  8.2579787273249305
  6.3732183191214293  6.3630568115252899  8.2526636467824659
