Cu 
 1.0000000000000000
     3.6451099076188180   -0.0000016166463296   -0.0000020151694938
    -0.0000016166463295    3.6451095689883828    0.0000017704960755
    -0.0000020151694945    0.0000017704960749    3.6451087341591961
 Cu 
   4
Cartesian
  0.0000001665691397  0.0000000765823127  0.0000000442464263
 -0.0000020151333201  1.8225556416408029  1.8225550504859764
  1.8225539423664570  0.0000000615728549  1.8225533501943871
  1.8225541820007178  1.8225539430421587  0.0000000445589897
