Al  H 
 1.0000000000000000
    11.4212923049999997    0.0000000000000000    0.0000000000000000
    -5.7106474695999996    9.8911285198000005    0.0000000000000000
     0.0000000000000000    0.0000000000000000   32.0000000000000000
 Al  H  
 144   4
Selective dynamics
Cartesian
  0.0000000000000000  0.0000000000000000  0.0000000000000000   F   F   F
 -0.0019498419759467 -0.0051771650828814  6.9870352352727165   T   T   T
 -0.0052483769748067 -0.0103505973549348 13.9952696105118264   T   T   T
 -2.8553237349999998  4.9455642600000003  0.0000000000000000   F   F   F
 -2.8714698045488363  4.9446577940613121  6.9800150589015457   T   T   T
 -2.8730813895129979  4.9438878553167909 13.9939366228761752   T   T   T
  5.7106461519999998  0.0000000000000000  0.0000000000000000   F   F   F
  5.7128810513384281  0.0017333444637099  6.9879438514646566   T   T   T
  5.7122764900397867  0.0145930142613656 13.9909818773013175   T   T   T
  2.8553224180000001  4.9455642600000003  0.0000000000000000   F   F   F
  2.8726451750755655  4.9422648666137503  6.9843035485828562   T   T   T
  2.9455159699639646  4.9285771215356284 13.9792190907156275   T   T   T
 -0.0000004390000000  3.2970429380000001  2.3313617880000002   F   F   F
 -0.0042897452974759  3.2996862729631369  9.3176312071996517   T   T   T
 -0.0025445195967578  3.3158953487126905 16.3219439479981965   T   T   T
 -2.8553243440000000  8.2426074929999995  2.3313617880000002   F   F   F
 -2.8576541011237042  8.2430668943676988  9.3183235651637535   T   T   T
 -2.8548101386310156  8.2413189619043088 16.3081143160533486   T   T   T
  5.7106458839999998  3.2970429380000001  2.3313617880000002   F   F   F
  5.7253244220788293  3.2800024805536259  9.3403112082665487   T   T   T
  5.7190919145848689  3.3006796881630920 16.3315583792913870   T   T   T
  2.8553219790000002  8.2426074929999995  2.3313617880000002   F   F   F
  2.8576067614897775  8.2404523437781734  9.3245373045561397   T   T   T
  2.8435767013108229  8.2244790093308264 16.3239723310777372   T   T   T
  2.8377198311093310  1.6292927891360973  4.6553025056869091   T   T   T
  2.8564164536386256  1.6198953880697791 11.6353291320882413   T   T   T
  2.8575312181326362  1.6491039098807352 18.6489970320902216   T   T   T
  0.0000994733852369  6.5996008984233354  4.6567408998553850   T   T   T
  0.0018699808088102  6.5959262017633744 11.6712607797856371   T   T   T
  0.0042745444809324  6.6097093456637364 18.7540881830437414   T   T   T
  8.5833612685044596  1.6280433455692616  4.6532941780000181   T   T   T
  8.5657547680463235  1.6472133079598956 11.6476724083221104   T   T   T
  8.5632809314575944  1.6479894370907906 18.6589505989005922   T   T   T
  5.7106326437546597  6.6933966225302832  4.6213231906611840   T   T   T
  5.7166066450477340  6.6058818729998494 11.6631767888734217   T   T   T
  5.7138721556240775  6.5922800971253039 18.6546401773030261   T   T   T
  4.2829840370000003  0.8242607350000000  2.3313617880000002   F   F   F
  4.2852935523699029  0.8165728451874195  9.3054007489930743   T   T   T
  4.2853501718057299  0.8167286451254536 16.3331851193971964   T   T   T
  1.4276604289999999  5.7698247729999999  2.3313617880000002   F   F   F
  1.4219322532975189  5.7772895872202472  9.3126020028951917   T   T   T
  1.4238556324216511  5.7745490278570806 16.4434729949312128   T   T   T
  9.9936301889999992  0.8242607350000000  2.3313617880000002   F   F   F
  9.9947813090138489  0.8256451277230871  9.3276629491223186   T   T   T
  9.9950665303629105  0.8251582941697188 16.3303773382146176   T   T   T
  7.1383065820000002  5.7698247729999999  2.3313617880000002   F   F   F
  7.1494533673020522  5.7769161332646943  9.3584691118594368   T   T   T
  7.1384158158106201  5.7732310182067872 16.3149999677810662   T   T   T
 -1.4019250092947648  4.1157597250639695  4.6541201254251785   T   T   T
 -1.4625416301003196  4.1101321453036990 11.6275752086063218   T   T   T
 -1.4303389675545262  4.1066147571508358 18.7038979260643217   T   T   T
 -4.2749033709217903  9.0919354322015753  4.6544882861071102   T   T   T
 -4.2848590318589244  9.0586432861001196 11.6535292439619109   T   T   T
 -4.2825104200255932  9.0669673125826709 18.6549978870270756   T   T   T
  4.1966308256378566  4.0715580868822974  4.6216234443005053   T   T   T
  4.3228287516955488  4.1227231401986471 11.6277171313414218   T   T   T
  4.2803304233026180  4.1214335097963684 18.6573596813578391   T   T   T
  1.4236675541770683  9.0644974262110178  4.6551023155509457   T   T   T
  1.4297484013737460  9.0996402897746069 11.6285118229782132   T   T   T
  1.4268234577448944  9.0679163359620638 18.6629202536897338   T   T   T
  1.4276610390000000  2.4727821300000001  0.0000000000000000   F   F   F
  1.4316252151925672  2.4756557852297449  6.9940318219773658   T   T   T
  1.4048134057696460  2.4780813432106519 14.0087861470624695   T   T   T
 -1.4276626960000001  7.4183463900000000  0.0000000000000000   F   F   F
 -1.4331558457125073  7.4151209571934542  6.9885765861944957   T   T   T
 -1.4111829094685580  7.3998811604302155 14.0022268923468243   T   T   T
  7.1383073609999999  2.4727821300000001  0.0000000000000000   F   F   F
  7.1330844489455520  2.4881080297831111  6.9733252913442154   T   T   T
  7.1475014328198041  2.4706635796723475 13.9954404053984796   T   T   T
  4.2829836270000001  7.4183463900000000  0.0000000000000000   F   F   F
  4.2935380951100335  7.4065242846785084  6.9785100088378194   T   T   T
  4.2734529401341819  7.4240773624047911 13.9948701720041075   T   T   T
  2.8553221270000000  3.2970429380000001  2.3313617880000002   F   F   F
  2.8531528868607547  3.2996198323714325  9.3405149892733714   T   T   T
  2.8459248058271371  3.3152620631557372 16.3015707532024088   T   T   T
 -0.0000017780000000  8.2426074929999995  2.3313617880000002   F   F   F
 -0.0003417885702915  8.2396285591272385  9.3220311589213729   T   T   T
  0.0139415865424676  8.2222877134697008 16.3101081243306183   T   T   T
  8.5659682789999998  3.2970429380000001  2.3313617880000002   F   F   F
  8.5591984368352350  3.2927250722410926  9.3084937739244804   T   T   T
  8.5718637204571202  3.2983561374557837 16.3175327455320200   T   T   T
  5.7106443740000001  8.2426074929999995  2.3313617880000002   F   F   F
  5.7093378334598048  8.2406893609412535  9.3213686511102551   T   T   T
  5.7108297342249665  8.2394551559399698 16.3240563129589056   T   T   T
  0.0006300864055624  1.6488726031289263  4.6626688121224786   T   T   T
  0.0128156654086587  1.6571316781383689 11.6643759114340497   T   T   T
 -0.0005047735925275  1.6473834985205540 18.6579471276961897   T   T   T
 -2.8719903325997556  6.5844492088213249  4.6549255938448777   T   T   T
 -2.8450419133174982  6.5979690162065099 11.6669289948605215   T   T   T
 -2.8672269698282475  6.5985240181249329 18.6893736222940632   T   T   T
  5.7101157956111850  1.6682168038725074  4.6576720402124128   T   T   T
  5.7012727674222967  1.6506805239415767 11.6586661359727923   T   T   T
  5.7123366652592082  1.6488252656437932 18.6615968224050803   T   T   T
  2.8722789701224509  6.5838739204320564  4.6576516198440849   T   T   T
  2.8428490311913972  6.5815686932107242 11.6865543000511405   T   T   T
  2.8672931066256293  6.5988044594788011 18.7198035208089557   T   T   T
  2.8553229060000000  0.0000000000000000  0.0000000000000000   F   F   F
  2.8558760333800834 -0.0013752342594147  6.9923172602288250   T   T   T
  2.8503912958664928  0.0113025252560453 13.9852442379151007   T   T   T
 -0.0000008290000000  4.9455642600000003  0.0000000000000000   F   F   F
  0.0006060352101956  4.9475018405843318  6.9934309398679275   T   T   T
 -0.0948816008641816  4.8847258541006955 13.9514525066594324   T   T   T
  8.5659692290000002  0.0000000000000000  0.0000000000000000   F   F   F
  8.5653149593597480 -0.0013878864474601  6.9998911882627137   T   T   T
  8.5744927298828877  0.0221598818203190 13.9887191792606078   T   T   T
  5.7106454940000004  4.9455642600000003  0.0000000000000000   F   F   F
  5.7103206801192243  4.9472481847341925  7.1135646668899186   T   T   T
  5.7301224770700045  4.9328406786545402 13.9817350883094065   T   T   T
  1.4276614710000000  0.8242607350000000  2.3313617880000002   F   F   F
  1.4238234979068669  0.8159151303507793  9.3142338212209612   T   T   T
  1.4228000402653693  0.8188989616167855 16.3231863584708137   T   T   T
 -1.4276621359999999  5.7698247729999999  2.3313617880000002   F   F   F
 -1.4255773415519220  5.7720630533440627  9.3210608874460625   T   T   T
 -1.4097850025464811  5.7700682869190372 16.3870602105486682   T   T   T
  7.1383077940000002  0.8242607350000000  2.3313617880000002   F   F   F
  7.1412467520505025  0.8291756546020022  9.3108030144573490   T   T   T
  7.1397782106860426  0.8196038102872500 16.3185790937796753   T   T   T
  4.2829841860000002  5.7698247729999999  2.3313617880000002   F   F   F
  4.2712647977715843  5.7894033330560202  9.3535406073343399   T   T   T
  4.2695648172986402  5.7787652015288575 16.3248152888900506   T   T   T
  1.4022956640580329  4.1158705677065832  4.6551369055050431   T   T   T
  1.4038854242175656  4.1424484006979725 11.6558185499062752   T   T   T
  1.4241597737854421  4.1088958493694721 18.7056747304348612   T   T   T
 -1.4228346763389090  9.0639721297553297  4.6568058216917221   T   T   T
 -1.4237435648334535  9.0563760638300952 11.6548826643082499   T   T   T
 -1.4282950456219139  9.0583510179646289 18.6446147572779459   T   T   T
  7.2243352122297591  4.0720739593139035  4.6215988288781853   T   T   T
  7.1513679134765953  4.1219352793512467 11.6547755717440236   T   T   T
  7.1474013582912939  4.1252047189872263 18.6526706573694980   T   T   T
  4.2740201985826944  9.0918437550050708  4.6530750385662811   T   T   T
  4.2789668541353141  9.0651508912100400 11.6552162435609166   T   T   T
  4.2825697864866141  9.0694201569316988 18.6506313724899790   T   T   T
 -1.4276618670000001  2.4727821300000001  0.0000000000000000   F   F   F
 -1.4323438887150675  2.4736100650150306  6.9875250572397727   T   T   T
 -1.4560084026382536  2.4520273924775586 13.9860381230996076   T   T   T
 -4.2829856020000001  7.4183463900000000  0.0000000000000000   F   F   F
 -4.2931998030293137  7.4044450296861299  6.9784568490160979   T   T   T
 -4.2804767286627206  7.4246847279600905 13.9907315341699885   T   T   T
  4.2829842850000004  2.4727821300000001  0.0000000000000000   F   F   F
  4.2879071100703650  2.4904925126235709  6.9831728735520917   T   T   T
  4.3210713474948363  2.4476705019066056 14.0074333738830941   T   T   T
  1.4276605499999999  7.4183463900000000  0.0000000000000000   F   F   F
  1.4309851635490911  7.4179293288753545  6.9869285440424607   T   T   T
  1.4302626161680119  7.5334232613479557 13.9485941298965166   T   T   T
  1.3962882381285060  5.7921416223312301 14.5670675236911666   T   T   T
  5.7100753563116253  4.9454538084026058  5.2485192198691610   T   T   T
  2.8537746338175087  3.2540792375988810 12.7864873208723910   T   T   T
 -1.4142293821424898  5.7702708766075475 19.7065332707094925   T   T   T
