Al  H 
 1.0000000000000000
    11.4212923049999997    0.0000000000000000    0.0000000000000000
    -5.7106474695999996    9.8911285198000005    0.0000000000000000
     0.0000000000000000    0.0000000000000000   32.0000000000000000
 Al  H  
 144   4
Selective dynamics
Cartesian
  0.0000000000000000  0.0000000000000000  0.0000000000000000   F   F   F
 -0.0826567047306461  0.0011909883830169  7.0531141882339945   T   T   T
  0.0085459250498922 -0.0001869533826122 13.9950373747676959   T   T   T
 -2.8553237349999998  4.9455642600000003  0.0000000000000000   F   F   F
 -2.9367222642231301  4.9468415752808799  7.0535245251335539   T   T   T
 -2.8509547336683956  4.9518060354147968 13.9959998165802926   T   T   T
  5.7106461519999998  0.0000000000000000  0.0000000000000000   F   F   F
  5.7431973163859542  0.0028792176163571  6.9950780577235037   T   T   T
  5.7037531596739059 -0.0055378937053349 14.0003733493300988   T   T   T
  2.8553224180000001  4.9455642600000003  0.0000000000000000   F   F   F
  2.8879386335993495  4.9473509178337354  7.0090629442313457   T   T   T
  2.8528484070121429  4.9423800531933040 14.0019655714691478   T   T   T
 -0.0000004390000000  3.2970429380000001  2.3313617880000002   F   F   F
 -0.0046754719010852  3.2998982193468396  9.3033984166847752   T   T   T
 -0.0048949862478504  3.2941303023248705 16.3244901274066940   T   T   T
 -2.8553243440000000  8.2426074929999995  2.3313617880000002   F   F   F
 -2.8642679623645217  8.2451890159938266  9.3273600650565101   T   T   T
 -2.8550350879642470  8.2429394522628296 16.3091543045937115   T   T   T
  5.7106458839999998  3.2970429380000001  2.3313617880000002   F   F   F
  5.7133881170427321  3.2982977784880210  9.3444385157201086   T   T   T
  5.7152589728650440  3.2932646149789013 16.3274792449301991   T   T   T
  2.8553219790000002  8.2426074929999995  2.3313617880000002   F   F   F
  2.8598610113627791  8.2394380120217381  9.3437498445328071   T   T   T
  2.8533573226991589  8.2501157887347070 16.3279650313653910   T   T   T
  2.8450526962930733  1.6331749189989102  4.6788723265515184   T   T   T
  2.8553085232395663  1.6350677605030925 11.6637374195419508   T   T   T
  2.8551317973072479  1.6494907858031720 18.6609337161921047   T   T   T
 -0.0124293820631681  6.5818104998146714  4.6786121704864998   T   T   T
 -0.0109092044936091  6.6002979856242137 11.6648891390637264   T   T   T
  0.0006710901318499  6.5935318471992668 18.6612290342686222   T   T   T
  8.5744458831483108  1.6553603334985858  4.6722252036774892   T   T   T
  8.5636372479100213  1.6494504437918647 11.6908176279589586   T   T   T
  8.5660726186089491  1.6485596319798368 18.9725465413064605   T   T   T
  5.7211981626321862  6.6014238969213368  4.6754048334913918   T   T   T
  5.7219620083301770  6.6004631678745866 11.6945558877860361   T   T   T
  5.7097685262448534  6.5936357329541817 18.6604983987084516   T   T   T
  4.2829840370000003  0.8242607350000000  2.3313617880000002   F   F   F
  4.3158309587973491  0.8495333513235056  9.3546158002034829   T   T   T
  4.2857707124558955  0.8275794689209979 16.3292836884895713   T   T   T
  1.4276604289999999  5.7698247729999999  2.3313617880000002   F   F   F
  1.4547829581202547  5.7867325220192383  9.3696335223226086   T   T   T
  1.4266652768257599  5.7688967563324631 16.3254304295435446   T   T   T
  9.9936301889999992  0.8242607350000000  2.3313617880000002   F   F   F
  9.9678310944027420  0.8099152166658972  9.3791603395953143   T   T   T
  9.9826885943423633  0.8322984022783704 16.3384164848258813   T   T   T
  7.1383065820000002  5.7698247729999999  2.3313617880000002   F   F   F
  7.1070689912137626  5.7481738015907968  9.3748969889461069   T   T   T
  7.1379878619108936  5.7642619791169265 16.3285274873221695   T   T   T
 -1.4311709722011510  4.1202105999180691  4.5619663050853161   T   T   T
 -1.4237428934449059  4.1138666524926295 11.6497912417424860   T   T   T
 -1.4253826350418166  4.1250365852997524 18.6500758856275404   T   T   T
 -4.2868387952282001  9.0649273267576671  4.5605523287562573   T   T   T
 -4.3064630664733912  9.0850941339313600 11.6384709507700848   T   T   T
 -4.2802029218964872  9.0653753090982789 18.6546399462528321   T   T   T
  4.2755770733384360  4.1191462957449048  4.6495640805385250   T   T   T
  4.2782687183993495  4.1202873241246332 11.6721479381716460   T   T   T
  4.2799385860599894  4.1227569774627657 18.6557529328683209   T   T   T
  1.4219577861482804  9.0630748528721821  4.6498854041007522   T   T   T
  1.4319109153887308  9.0686552064280477 11.6689795348868248   T   T   T
  1.4253783384978818  9.0632886803993031 18.6494219009854554   T   T   T
  1.4276610390000000  2.4727821300000001  0.0000000000000000   F   F   F
  1.4041147833987757  2.4605969884174139  6.9948864677050313   T   T   T
  1.4222792151747552  2.4806925777777544 13.9991191830131498   T   T   T
 -1.4276626960000001  7.4183463900000000  0.0000000000000000   F   F   F
 -1.4539860037040779  7.4039362977444521  7.0054464367840703   T   T   T
 -1.4055565270808765  7.4047391960501505 14.0106834390455841   T   T   T
  7.1383073609999999  2.4727821300000001  0.0000000000000000   F   F   F
  7.1386676943861245  2.4730737356686650  6.9922822788587125   T   T   T
  7.1407906495832014  2.4709478263303213 14.0211344936388258   T   T   T
  4.2829836270000001  7.4183463900000000  0.0000000000000000   F   F   F
  4.2831220393921701  7.4163371295220957  6.9925227790856157   T   T   T
  4.2748635463299545  7.4192885212297703 14.0237078474797610   T   T   T
  2.8553221270000000  3.2970429380000001  2.3313617880000002   F   F   F
  2.8536583779306435  3.2952479171113098  9.3308631296077511   T   T   T
  2.8537783212360766  3.2963118973494798 16.3262366328295023   T   T   T
 -0.0000017780000000  8.2426074929999995  2.3313617880000002   F   F   F
  0.0077921116829960  8.2436058016868774  9.3128672260271301   T   T   T
  0.0034885009255113  8.2433299760589982 16.3303637244176123   T   T   T
  8.5659682789999998  3.2970429380000001  2.3313617880000002   F   F   F
  8.5611566536898476  3.2945813112106874  9.3391719089928120   T   T   T
  8.5682886955845134  3.2838941155034327 16.3403116600895295   T   T   T
  5.7106443740000001  8.2426074929999995  2.3313617880000002   F   F   F
  5.6976264163633044  8.2406123806444782  9.3371850555379190   T   T   T
  5.7072434564117920  8.2456233598790831 16.3302063923508882   T   T   T
 -0.0118341225111252  1.6424883117432982  4.7040022979677092   T   T   T
 -0.0045887923349409  1.6563873325747918 11.6496853482418548   T   T   T
  0.0044395360112660  1.6485377223567648 18.6504403378756827   T   T   T
 -2.8671953081071244  6.5885261886420272  4.7078634222160156   T   T   T
 -2.8528766254214486  6.5655741056765802 11.6383662254205245   T   T   T
 -2.8553148795265995  6.5972983611691358 18.6553821472123147   T   T   T
  5.7076455589699098  1.6477151991511430  4.6521543216421257   T   T   T
  5.7196467521729675  1.6568757760915538 11.6878791814262701   T   T   T
  5.7064739386252459  1.6483502046507128 18.6502791787883098   T   T   T
  2.8534357608637846  6.5906788329503518  4.6500555176891680   T   T   T
  2.8592030470758796  6.5952448309793068 11.6929935422015348   T   T   T
  2.8552084674922713  6.5907901334948384 18.6563492356225957   T   T   T
  2.8553229060000000  0.0000000000000000  0.0000000000000000   F   F   F
  2.9761036351288626  0.0677260363329255  7.0628152732019984   T   T   T
  2.8554959936092574  0.0258436404713402 14.0087638658818321   T   T   T
 -0.0000008290000000  4.9455642600000003  0.0000000000000000   F   F   F
  0.1259324941480817  5.0175222006367370  7.0561996681936696   T   T   T
  0.0042856119903103  4.9368697272699515 13.9968605008217644   T   T   T
  8.5659692290000002  0.0000000000000000  0.0000000000000000   F   F   F
  8.5364664198112692 -0.0171270244324813  7.0058162295982358   T   T   T
  8.5642243847895827  0.0018246522667551 14.0094167632008411   T   T   T
  5.7106454940000004  4.9455642600000003  0.0000000000000000   F   F   F
  5.6782272989037939  4.9291532862624381  7.0061783382355323   T   T   T
  5.7053558235466966  4.9378026054632578 14.0117155701915070   T   T   T
  1.4276614710000000  0.8242607350000000  2.3313617880000002   F   F   F
  1.4211033040952825  0.8246001981526720  9.3027431886177041   T   T   T
  1.4239031384108445  0.8289736865375128 16.3277992803165830   T   T   T
 -1.4276621359999999  5.7698247729999999  2.3313617880000002   F   F   F
 -1.4254946037733147  5.7564633863173373  9.3064375079440556   T   T   T
 -1.4254384843020085  5.7643895179065066 16.3287885144128460   T   T   T
  7.1383077940000002  0.8242607350000000  2.3313617880000002   F   F   F
  7.1440589616813321  0.8264712714939643  9.3455107918912930   T   T   T
  7.1500328427883915  0.8302628803252410 16.3414799152834043   T   T   T
  4.2829841860000002  5.7698247729999999  2.3313617880000002   F   F   F
  4.2855304381356882  5.7738949380460314  9.3590157197215262   T   T   T
  4.2816440568966190  5.7681013176476368 16.3276166054418894   T   T   T
  1.4128960497639407  4.1204866486944596  4.6755806981204948   T   T   T
  1.4239211016351312  4.1183148455001621 11.6557933954543120   T   T   T
  1.4303951952014433  4.1228190749950180 18.6570084789298818   T   T   T
 -1.4457457471969055  9.0641327069936359  4.6805130126156982   T   T   T
 -1.4036362629576045  9.0808858763163744 11.6385914494308853   T   T   T
 -1.4305651260790380  9.0652182863170179 18.6554216399837500   T   T   T
  7.1480283741680717  4.1259724259822024  4.6731974829063336   T   T   T
  7.1367879125303428  4.1111324933310192 11.6873768274845968   T   T   T
  7.1363772073512379  4.1249984248571812 18.6503474059712424   T   T   T
  4.2930727950471104  9.0705491575410218  4.6725681205227190   T   T   T
  4.2741913445402568  9.0641963079173440 11.6872984455469808   T   T   T
  4.2852565647697389  9.0631284660625067 18.6500729324174230   T   T   T
 -1.4276618670000001  2.4727821300000001  0.0000000000000000   F   F   F
 -1.4683250523647904  2.3987621267033519  7.0538712104157764   T   T   T
 -1.4256803493554864  2.4740551444338323 13.9990757896937215   T   T   T
 -4.2829856020000001  7.4183463900000000  0.0000000000000000   F   F   F
 -4.3204024423047098  7.3480465135147037  7.0626438413143440   T   T   T
 -4.3002594368571421  7.4080129378184107 14.0145286889839529   T   T   T
  4.2829842850000004  2.4727821300000001  0.0000000000000000   F   F   F
  4.2985648022646386  2.5009760522718363  6.9960861308746480   T   T   T
  4.2835812046867980  2.4784293169234815 14.0060584516138231   T   T   T
  1.4276605499999999  7.4183463900000000  0.0000000000000000   F   F   F
  1.4489822173860842  7.4420311353386186  6.9950307840420569   T   T   T
  1.4319974815297001  7.4176800561693153 14.0067962094541212   T   T   T
  7.1384492053017800  2.4726574106049170 20.5915569862716374   T   T   T
 -1.3690601638608570  4.1505624412870992  6.4227423793464586   T   T   T
 -4.2283281192986779  9.0977999539523537  6.4193251009635173   T   T   T
 -2.8577658752218400  8.2444605556256896 12.7744326017020828   T   T   T
