Al  H 
 1.0000000000000000
    17.1319389342999990    0.0000000000000000    0.0000000000000000
     0.0000000000000000   12.1141109467000003    0.0000000000000000
     0.0000000000000000    0.0000000000000000   32.0000000000000000
 Al  H  
 216   4
Selective dynamics
Cartesian
  0.0000000000000000  0.0000000000000000  0.0000000000000000   F   F   F
 -0.0040017319992495 -0.0006123223534345  5.7050543672173397   T   T   T
 -0.0020415912702607 -0.0845966600391955 11.3368923148807070   T   T   T
  0.0000000000000000  4.0380371029999997  0.0000000000000000   F   F   F
  0.0180855785695163  4.0427220581509795  5.7200711422891430   T   T   T
 -0.0012273829429129  4.0244146860491057 11.4688666761622589   T   T   T
  0.0000000000000000  8.0760742049999994  0.0000000000000000   F   F   F
 -0.0006020057464570  8.0782352843492937  5.7151106895616923   T   T   T
  0.0018649496534944  8.0834822491943203 11.4557783567297733   T   T   T
  5.7106464819999996  0.0000000000000000  0.0000000000000000   F   F   F
  5.7141237448813769  0.0020558406872625  5.7231235902352671   T   T   T
  5.7067491689664855  0.0041649168485845 11.4544868756921758   T   T   T
  5.7106464819999996  4.0380371029999997  0.0000000000000000   F   F   F
  5.7003352799308598  4.0447505393485805  5.7428752231638924   T   T   T
  5.7311448398721838  4.0546970331805614 11.4346276979218953   T   T   T
  5.7106464819999996  8.0760742049999994  0.0000000000000000   F   F   F
  5.6988569480870970  8.1018206833987403  5.6980281206787851   T   T   T
  5.6981311409449056  8.1133770567897336 11.4858198519208763   T   T   T
 11.4212929630000009  0.0000000000000000  0.0000000000000000   F   F   F
 11.4189600090533077 -0.0525935443039372  5.6387947103982432   T   T   T
 11.4301360657907374 -0.0217993014212032 11.4981181390135045   T   T   T
 11.4212929630000009  4.0380371029999997  0.0000000000000000   F   F   F
 11.4218806473107897  4.0197687327027189  5.7300718458781441   T   T   T
 11.4062157570883542  4.0037414892314631 11.4399819053646894   T   T   T
 11.4212929630000009  8.0760742049999994  0.0000000000000000   F   F   F
 11.4201795117663849  8.0759689730159447  5.7304847372191556   T   T   T
 11.4209257872950065  8.0995773336780896 11.4672942541312821   T   T   T
  2.8553232409999998  0.0000000000000000  2.8553232409999998   F   F   F
  2.8412881781499406 -0.0166423778201230  8.5853105916454986   T   T   T
  2.8278299711238142  0.0068741256323539 14.3210782602930955   T   T   T
  2.8553232409999998  4.0380371029999997  2.8553232409999998   F   F   F
  2.8110304662344303  4.0168483626705003  8.5891706915368253   T   T   T
  2.8853308825110866  4.0665762342531533 14.3341580874262853   T   T   T
  2.8553232409999998  8.0760742049999994  2.8553232409999998   F   F   F
  2.8692149549919517  8.0595537035490139  8.5734709387236006   T   T   T
  2.8564944132993548  8.0753508409795316 14.3108697832466873   T   T   T
  8.5659694670000004  0.0000000000000000  2.8553232409999998   F   F   F
  8.5795538565522289  0.0109896549003690  8.5722095651210868   T   T   T
  8.5631138454597000  0.0042319947295406 14.3333585201048344   T   T   T
  8.5659694670000004  4.0380371029999997  2.8553232409999998   F   F   F
  8.6279569679851651  3.9970141961152903  8.5945763669156907   T   T   T
  8.5542299641817259  4.0323073080571294 14.3345540042043975   T   T   T
  8.5659694670000004  8.0760742049999994  2.8553232409999998   F   F   F
  8.5517086882686542  8.0705798175531189  8.5750302544903239   T   T   T
  8.5563165366447809  8.0861043100525460 14.3582695204507829   T   T   T
 14.2766154380000003  0.0000000000000000  2.8553232409999998   F   F   F
 14.2662719474793391  0.0086586525364993  8.5707663271528585   T   T   T
 14.3062012732454740  0.0040228981623928 14.3277882695735634   T   T   T
 14.2766154380000003  4.0380371029999997  2.8553232409999998   F   F   F
 14.3245379691481798  4.0587050022993107  8.5890252868422898   T   T   T
 14.2553876650622406  4.0561533427742589 14.3467931923769338   T   T   T
 14.2766154380000003  8.0760742049999994  2.8553232409999998   F   F   F
 14.2734016692668852  8.0733906283609596  8.5608420376119412   T   T   T
 14.2868618039175495  8.0802539350534204 14.3237095238848209   T   T   T
  1.4276616200000001  2.0190185509999998  1.4276616200000001   F   F   F
  1.4256115806448137  2.0055488914133792  7.1444344101562312   T   T   T
  1.5139664452029018  2.0737979286892481 12.8540161621622886   T   T   T
  1.4276616200000001  6.0570554730000001  1.4276616200000001   F   F   F
  1.4346700814034268  6.0513519697479001  7.1451692653688772   T   T   T
  1.4341170352871762  6.0543074634687208 12.8470721689705183   T   T   T
  1.4276616200000001 10.0950922149999993  1.4276616200000001   F   F   F
  1.4303913668469024 10.0829541978285189  7.1316943401710695   T   T   T
  1.4041317878027022 10.1156477282157500 12.8585477685675738   T   T   T
  7.1383077190000002  2.0190185509999998  1.4276616200000001   F   F   F
  7.0958073678960281  2.0498155662285495  7.1534807781291478   T   T   T
  7.1473572567620760  2.0254630934559201 12.8379968746164010   T   T   T
  7.1383077190000002  6.0570554730000001  1.4276616200000001   F   F   F
  7.1315693218921803  6.1468092180548464  7.0513433535114380   T   T   T
  7.1165783221834182  6.0695982212977526 12.8925956675903741   T   T   T
  7.1383077190000002 10.0950922149999993  1.4276616200000001   F   F   F
  7.1419946679815709 10.1022141695567864  7.1424619688678366   T   T   T
  7.1357343801640472 10.1048965750795272 12.8584077348471837   T   T   T
 12.8489542009999997  2.0190185509999998  1.4276616200000001   F   F   F
 12.9695100149521938  2.1003159191593266  7.1341850151239488   T   T   T
 12.8198485241234224  2.0202767393748893 12.8467743281980127   T   T   T
 12.8489542009999997  6.0570554730000001  1.4276616200000001   F   F   F
 12.8495529587469104  6.0481051227631664  7.1289981702096394   T   T   T
 12.8816613147051999  6.0605680739173566 12.8752929120229602   T   T   T
 12.8489542009999997 10.0950922149999993  1.4276616200000001   F   F   F
 12.8344031606259108 10.1089808723466259  7.1547033038250785   T   T   T
 12.8711715136268374 10.1002655090266469 12.8684780158690018   T   T   T
  4.2829847340000002  2.0190185509999998  4.2829847340000002   F   F   F
  4.2453343429968946  1.9863502082151208 10.0094233769491066   T   T   T
  4.2855826365735297  2.0127638888692578 15.6411183535479914   T   T   T
  4.2829847340000002  6.0570554730000001  4.2829847340000002   F   F   F
  4.3013552561820463  6.0602454645487480  9.9904109624912039   T   T   T
  4.2877119250460769  6.0764988782163334 15.6656982375035607   T   T   T
  4.2829847340000002 10.0950922149999993  4.2829847340000002   F   F   F
  4.2799951240693401 10.0955061079048747  9.9982000300409126   T   T   T
  4.2789297777384085 10.1065458836650759 15.6496536966094855   T   T   T
  9.9936307049999993  2.0190185509999998  4.2829847340000002   F   F   F
 10.0221020402844960  1.9745750174843484  9.9804264352708145   T   T   T
  9.9935574763412998  2.0278107907082958 15.6490094961642772   T   T   T
  9.9936307049999993  6.0570554730000001  4.2829847340000002   F   F   F
  9.9557932672229779  6.0521156191041294  9.9727323256151532   T   T   T
  9.9933396010776274  6.0584213059706578 15.6721858291016147   T   T   T
  9.9936307049999993 10.0950922149999993  4.2829847340000002   F   F   F
  9.9717615661586709 10.0655449362625085 10.0287319602873115   T   T   T
  9.9973402874768063 10.0918001409166465 15.6571166068250527   T   T   T
 15.7042776970000002  2.0190185509999998  4.2829847340000002   F   F   F
 15.7081170699631745  2.0088421472126194 10.0189637945957255   T   T   T
 15.6974766775326948  2.0429633996430949 15.6441115934253219   T   T   T
 15.7042776970000002  6.0570554730000001  4.2829847340000002   F   F   F
 15.7246131181408231  6.0667416114746660 10.0032515224161109   T   T   T
 15.7010919690178437  6.0556109920954553 15.6525644382720710   T   T   T
 15.7042776970000002 10.0950922149999993  4.2829847340000002   F   F   F
 15.6934930580054353 10.0682961564854558  9.9638602725403587   T   T   T
 15.6861895801056370 10.0380380832628493 15.6947350900988223   T   T   T
  2.8553232409999998  0.0000000000000000  0.0000000000000000   F   F   F
  2.8500976741638491 -0.0135841843409969  5.7115167673992548   T   T   T
  2.8299059412849741 -0.0043779031259699 11.4659035207738231   T   T   T
  2.8553232409999998  4.0380371029999997  0.0000000000000000   F   F   F
  2.8576022192728563  4.0347692816748397  5.7227797090402781   T   T   T
  2.8813347754970731  4.0618554147291608 11.4485229274437526   T   T   T
  2.8553232409999998  8.0760742049999994  0.0000000000000000   F   F   F
  2.8579868922121907  8.0689248304257433  5.7212741417245319   T   T   T
  2.8506367659350724  8.0830079592919795 11.4562187693626303   T   T   T
  8.5659694670000004  0.0000000000000000  0.0000000000000000   F   F   F
  8.5770928422495327  0.0140252388477322  5.7328478047363056   T   T   T
  8.5618371100894670  0.0013756422205965 11.4554140965814728   T   T   T
  8.5659694670000004  4.0380371029999997  0.0000000000000000   F   F   F
  8.5323939600504186  4.0656850328055620  5.7332057220591350   T   T   T
  8.5716103742228569  4.0551149859960676 11.4374560401689376   T   T   T
  8.5659694670000004  8.0760742049999994  0.0000000000000000   F   F   F
  8.5801526616025328  8.1105832236772368  5.7018739226202451   T   T   T
  8.5766066180366192  8.0856676912285899 11.4935935510607354   T   T   T
 14.2766154380000003  0.0000000000000000  0.0000000000000000   F   F   F
 14.2612749602421420  0.0142933346904581  5.7288416907027395   T   T   T
 14.3021769652364483  0.0030674664418506 11.4634932817713082   T   T   T
 14.2766154380000003  4.0380371029999997  0.0000000000000000   F   F   F
 14.3124904432047479  4.0658866723590519  5.7102964443142747   T   T   T
 14.2433042094130684  4.0646581007905906 11.4480510468635313   T   T   T
 14.2766154380000003  8.0760742049999994  0.0000000000000000   F   F   F
 14.2723816859980523  8.0862056576551744  5.7176682530413254   T   T   T
 14.2830667542601528  8.0665070531469159 11.4617199657285571   T   T   T
  0.0000000000000000  0.0000000000000000  2.8553232409999998   F   F   F
 -0.0076794870234730 -0.0153107241212879  8.5380342024998139   T   T   T
  0.0026156326386262 -0.0509183748076646 14.5119646897379262   T   T   T
  0.0000000000000000  4.0380371029999997  2.8553232409999998   F   F   F
  0.0088797594148067  4.0396433251621016  8.5957616447472525   T   T   T
  0.0045653108205421  4.0221128577119716 14.3177355084450095   T   T   T
  0.0000000000000000  8.0760742049999994  2.8553232409999998   F   F   F
  0.0078302259519743  8.0693878731312552  8.5682022494262835   T   T   T
  0.0037104089397005  8.0712326099513039 14.3221968360485974   T   T   T
  5.7106464819999996  0.0000000000000000  2.8553232409999998   F   F   F
  5.7144186770021825  0.0054895163830654  8.5847644763042616   T   T   T
  5.7040497961377685  0.0064285336377393 14.3157492118933352   T   T   T
  5.7106464819999996  4.0380371029999997  2.8553232409999998   F   F   F
  5.5847702270600168  3.9615763524386072  8.5914107930583103   T   T   T
  5.7197851767449199  4.0470910317552065 14.3313206740711454   T   T   T
  5.7106464819999996  8.0760742049999994  2.8553232409999998   F   F   F
  5.7188768549962266  8.0739396526048139  8.5822553337824505   T   T   T
  5.7059734828857227  8.0890294887345835 14.3460891780719919   T   T   T
 11.4212929630000009  0.0000000000000000  2.8553232409999998   F   F   F
 11.4274258407658440 -0.0883793989006315  8.6973167947108863   T   T   T
 11.4278303723109147  0.0057638627919360 14.3480947662126024   T   T   T
 11.4212929630000009  4.0380371029999997  2.8553232409999998   F   F   F
 11.4576123036508335  4.0151558821052626  8.5779011633586428   T   T   T
 11.4100653439943791  4.0554084173850233 14.3093533816344234   T   T   T
 11.4212929630000009  8.0760742049999994  2.8553232409999998   F   F   F
 11.4133373702081133  8.0665728758958650  8.5982796262878285   T   T   T
 11.4198370788457542  8.0711216662760261 14.3099031657656059   T   T   T
  1.4276616200000001  2.0190185509999998  4.2829847340000002   F   F   F
  1.4056999452922747  1.9991564373746484 10.0250905116278481   T   T   T
  1.4411269124150592  2.0476111352555706 15.6401292047660156   T   T   T
  1.4276616200000001  6.0570554730000001  4.2829847340000002   F   F   F
  1.4385409906688478  6.0552574063432099 10.0024957323822452   T   T   T
  1.4283358467350897  6.0556153683961584 15.6514168399715476   T   T   T
  1.4276616200000001 10.0950922149999993  4.2829847340000002   F   F   F
  1.4382600915596666 10.0596570233105673  9.9666547235689755   T   T   T
  1.4524937131013966 10.0343382569842596 15.6866748409168029   T   T   T
  7.1383077190000002  2.0190185509999998  4.2829847340000002   F   F   F
  7.1397008571226852  2.0385864443836077  9.9833742921773840   T   T   T
  7.1348252342164207  2.0126854588868293 15.6520250532844116   T   T   T
  7.1383077190000002  6.0570554730000001  4.2829847340000002   F   F   F
  7.1283035140999020  6.1383576668189175 10.0991078979992164   T   T   T
  7.1475062038319717  6.0563288605678309 15.6810971398565115   T   T   T
  7.1383077190000002 10.0950922149999993  4.2829847340000002   F   F   F
  7.1389997603164268 10.0971010257203417  9.9967201049489809   T   T   T
  7.1325667683205545 10.1085808940891759 15.6586033462112084   T   T   T
 12.8489542009999997  2.0190185509999998  4.2829847340000002   F   F   F
 12.8598758639576438  1.9979367659438012  9.9788183078163932   T   T   T
 12.8438883895574438  2.0232263765826048 15.6456719375642450   T   T   T
 12.8489542009999997  6.0570554730000001  4.2829847340000002   F   F   F
 12.8689214978105362  6.0597795052773735  9.9712713428106845   T   T   T
 12.8401323759178005  6.0792331481057094 15.6765968634149484   T   T   T
 12.8489542009999997 10.0950922149999993  4.2829847340000002   F   F   F
 12.8705762524458560 10.0722692485718106 10.0342145660238042   T   T   T
 12.8480970493541822 10.0928983180701675 15.6533752959156978   T   T   T
  4.2829847340000002  2.0190185509999998  1.4276616200000001   F   F   F
  4.2443899355897878  1.9841456608276011  7.1362665249039727   T   T   T
  4.3215709100940041  2.0387473000392764 12.8404126322435221   T   T   T
  4.2829847340000002  6.0570554730000001  1.4276616200000001   F   F   F
  4.2996442224010858  6.0427399783777167  7.1492092113800707   T   T   T
  4.2921382251603974  6.0702069322468892 12.8480555190030508   T   T   T
  4.2829847340000002 10.0950922149999993  1.4276616200000001   F   F   F
  4.2875231546080812 10.0917440894677863  7.1507002463236464   T   T   T
  4.2656640869783695 10.1132249852288059 12.8507517627312620   T   T   T
  9.9936307049999993  2.0190185509999998  1.4276616200000001   F   F   F
  9.9226137436283679  2.0590797217996069  7.1212833501966726   T   T   T
  9.9767995521552955  2.0107256931806989 12.8434503000532505   T   T   T
  9.9936307049999993  6.0570554730000001  1.4276616200000001   F   F   F
  9.9724645235499203  6.0462296386901260  7.1414618527992317   T   T   T
  9.9444670560638464  6.0572843706927886 12.8766699778487723   T   T   T
  9.9936307049999993 10.0950922149999993  1.4276616200000001   F   F   F
 10.0048711147915430 10.1116425073681295  7.1589631044941315   T   T   T
  9.9911317543157434 10.1102553868281948 12.8720957597863617   T   T   T
 15.7042776970000002  2.0190185509999998  1.4276616200000001   F   F   F
 15.7509854403906200  2.0339504548213609  7.1452358581498245   T   T   T
 15.6215896519849888  2.0769274985716244 12.8548938758374209   T   T   T
 15.7042776970000002  6.0570554730000001  1.4276616200000001   F   F   F
 15.7176932670148854  6.0676781840756258  7.1437385602034480   T   T   T
 15.7246730682267923  6.0471354127817296 12.8520454906731647   T   T   T
 15.7042776970000002 10.0950922149999993  1.4276616200000001   F   F   F
 15.6947599672845115 10.0973616630356755  7.1260626311688444   T   T   T
 15.7261584121682656 10.1160746178847116 12.8595809088490540   T   T   T
  0.0010969226675347  0.9358560418622246 12.8678189282512658   T   T   T
 11.4552443207304862  1.0065795402949371  7.1773987685877074   T   T   T
  7.0969739999787311  5.0557981292018432  8.5687907225106592   T   T   T
 11.4185500767739079  6.0521044503333892 11.4089435395268968   T   T   T
