Fe  H 
 1.0000000000000000
    14.2840000000000007    0.0000000000000000    0.0000000000000000
     0.0000000000000000   14.2840000000000007    0.0000000000000000
     0.0000000000000000    0.0000000000000000   14.2840000000000007
 Fe  H  
 256   4
Cartesian
  0.0062929424224149  0.0119788673072486  0.0031628857020934
  0.0049214062968376  1.7890677148021463  1.7723188122810170
  1.7743829493025229 -0.0120409790386825  1.7964256320751470
  1.7699490453592646  1.7733294811565561 -0.0040957766834962
  0.0147275977166461 -0.0144101878573908  3.5714077377053699
  0.0178223330989999  1.7662569639640440  5.3564139358203642
  1.7751944522493353  0.0035775737037380  5.3510248850030910
  1.7887405746095109  1.7804934358699236  3.5678013081052966
  0.0089667114682738 -0.0032068374908195  7.1204296127695805
  0.0001987094377110  1.7954188397985151  8.9346819750115145
  1.7985758189795149 -0.0178726267631875  8.9207768002484737
  1.7810366946674825  1.7834476472067180  7.1282582891240160
 -0.0006172110297716 -0.0010998828771082 10.7186709750735254
  0.0374173522622651  1.7720578467918147 12.5050587194164784
  1.7872661029356507  0.0054315808183386 12.5151290039375898
  1.7779801109022677  1.7995903361119918 10.7146135928795694
  0.0002353078247332  3.5655008072669760 -0.0033795668589431
 -0.0113780956265112  5.3635060803862951  1.8036110290117444
  1.8148405815621520  3.5657245328199645  1.7980223301833773
  1.7903077754257724  5.3729261749487698  0.0052059416408274
 -0.0281234344153139  3.5728903098508544  3.5687996834396345
  0.0017387606666275  5.3719435120817325  5.3574580930395443
  1.7895750858261770  3.5646300165611944  5.3642673567319195
  1.8079282106618431  5.3428858880684800  3.5635969532914058
  0.0155616161217336  3.5702452398746827  7.1596773092154145
  0.0072404552705887  5.3466215938836692  8.9168601151719038
  1.7869716920572878  3.5689538464677115  8.9238966855160005
  1.7732911521101120  5.3636938295419299  7.1464165521560918
  0.0260282901697449  3.5759935468868491 10.7078201369879746
  0.0082944514829473  5.3542934216668376 12.4755765247062413
  1.7661401069509268  3.5708167529779180 12.4755819489877009
  1.7819943366646829  5.3588037470496070 10.7206954776631154
  0.0175322233430278  7.1652094987398485  0.0029773272239222
  0.0173826708050342  8.9398995306102726  1.7772987376934564
  1.7779043155983516  7.1370213192411871  1.7761233368262734
  1.7777223559412243  8.9319085933104052  0.0044245988693425
  0.0011617547703233  7.1379196686705058  3.5788887649727372
  0.0088875146463020  8.9319639131680564  5.3498223226586399
  1.7780038191968601  7.1506036686711010  5.3701998776897604
  1.7718326557031601  8.9437371545713731  3.5839583296254416
  0.0182670986069734  7.1442563948582309  7.1375346782541067
  0.0192945924309605  8.9340767287482237  8.9225189377213834
  1.7720461725703192  7.1412164271374863  8.9191262450557787
  1.7782543107990865  8.9172805504705028  7.1399107448161807
  0.0204343289076683  7.1401528268543633 10.7170390626305831
  0.0067878865241063  8.9254713273608726 12.5100917931670335
  1.7746032495570681  7.1435096918656429 12.4966263619379685
  1.7697588615660755  8.9311774329884486 10.7228502177874212
 -0.0052305327963843 10.7085541435659124  0.0033717720500045
  0.0136198599800400 12.5095055124605317  1.7972201730189368
  1.7711617920592633 10.7152045768250996  1.7730371436751957
  1.8053517519658520 12.4912295378764249  0.0046886167343301
  0.0155677243926289 10.7074729492772089  3.5764387626353331
 -0.0153941037982745 12.4999748242386168  5.3578523801097564
  1.7970923201618081 10.7047739989016240  5.3481678777711936
  1.7765176459004883 12.5160036453373049  3.5671204203417939
 -0.0130014461086837 10.7163356069146900  7.1543315736070046
  0.0158931552814160 12.4865811951222394  8.9158524892846618
  1.7663385217601282 10.7198245071019809  8.9292865574473428
  1.7993097780406258 12.4992683738702066  7.1529488579494265
  0.0218584463021440 10.7144644902725457 10.7142201103259431
 -0.0128452757048443 12.4919658346530635 12.4826311305785396
  1.7957567562122683 10.7137461285588564 12.4893890211723075
  1.7795775214316596 12.4898357232510246 10.7016048875002863
  3.5652125645208392 -0.0152503725828587 -0.0214406762982078
  3.5714789586757369  1.7913252340900245  1.8032744323646008
  5.3514759500937519  0.0028023612913888  1.7754117030401024
  5.3463591349594388  1.7774911394546296 -0.0030003515300976
  3.5668326693908599 -0.0025120064243678  3.5710696860955364
  3.5787989140831002  1.8004097846760088  5.3607679785559252
  5.3643202722767915 -0.0111636362870474  5.3536393376922957
  5.3396651729019720  1.7395118834131957  3.5837117161362779
  3.5676972557162028 -0.0057400837096014  7.1608742079498677
  3.5819277639526166  1.7826504236096532  8.9309761149005791
  5.3534184062916239  0.0122130906379428  8.9099396673623446
  5.3506690645743262  1.7794760241856211  7.1459065734744813
  3.5860105897119978 -0.0124040208120350 10.7090142365964969
  3.5815728323468123  1.7768692468479237 12.4898425059925398
  5.3373159307896731 -0.0154415587076417 12.4859495631808635
  5.3330445980881649  1.7822545795274383 10.7113640461148343
  3.5766843969638047  3.5750859768818670  0.0042080467968268
  3.5368911756438441  5.3682473587491994  1.7773881704143462
  5.3136076994819934  3.5137677420671758  1.7339223816938143
  5.3299569929399437  5.3510093255496596 -0.0204995540822757
  3.5400647450792393  3.5675401101476734  3.5793236628776026
  3.5685510299655259  5.3494410732732751  5.3395812969189551
  5.3355208766209730  3.5554003994667709  5.3885934463054390
  5.3080688274310459  5.4117560189060381  3.6263130324065171
  3.5703554289717756  3.5559845330803053  7.1292849662941844
  3.5681067132309354  5.3669883274745152  8.9277089787379786
  5.3471957151587119  3.5804701322207642  8.9441272704246462
  5.3555601659065228  5.3500086143695302  7.1549240071104379
  3.5799495670609236  3.5540885713555901 10.7107207992117957
  3.5695704133097563  5.3467834882921403 12.5200108077178545
  5.3272501946112447  3.5596948954806735 12.5090012112627189
  5.3511505325273694  5.3637001260416390 10.6891154338165588
  3.5716862431024832  7.1278636759991754  0.0175890161391943
  3.5848069981604040  8.9290287282797003  1.7859904273686280
  5.3401747864497011  7.1792814944757195  1.7720426672495397
  5.3500772764211684  8.9301910985070450 -0.0043949025270785
  3.5743583794951452  7.1438330896540858  3.5733535706105330
  3.5497817941870817  8.9454156974957009  5.3592933047347087
  5.3632730360832790  7.1503124332388266  5.3510682899140312
  5.3456046619008539  8.9312806062475101  3.5570187589281517
  3.5519519136477511  7.1472714622632445  7.1606633530891912
  3.5911818986055577  8.9297406047301582  8.9300078824119371
  5.3135750997190527  7.1321579068360803  8.9190566724966533
  5.3533731678279217  8.9299126771903001  7.1491141605744852
  3.5791664824454354  7.1482657055364127 10.7164692885614325
  3.5644527634339949  8.9379237683559953 12.4896435318223400
  5.3531119888585152  7.1561989289984407 12.4816641209451138
  5.3204731484491257  8.9332096857943473 10.7242812579281477
  3.5543116780113841 10.7185469530936270  0.0056115807344861
  3.5740283792724039 12.4877613241408749  1.7706464290585924
  5.3387982372357419 10.7351884256100902  1.7999667171339508
  5.3530259459218854 12.5042799177908783  0.0108670051041185
  3.5830828542295032 10.7092499981990699  3.5749494699883808
  3.5671881589000916 12.4914510399504053  5.3603373261949407
  5.3400134617025490 10.7252511115601479  5.3502250931332238
  5.3555487193431865 12.4688686867010734  3.5815626723910676
  3.5649722477202763 10.7277237111068686  7.1172299297976567
  3.5567107746875966 12.5078287637620402  8.9254523599571254
  5.3501101819035339 10.7050317335165381  8.9387968960168944
  5.3498361029403041 12.5160194035008079  7.1359686028922242
  3.5685812086877275 10.7060112831697758 10.7082633516533026
  3.5619808324634299 12.5109091095037108 12.5001904844697549
  5.3732381137576075 10.7019327832454039 12.4935513260000768
  5.3555762723545000 12.4960011392391799 10.7280611405966209
  7.1286634671605027 -0.0285031392602818  0.0126747379991315
  7.1426517545143726  1.7304356513302466  1.7844165225595270
  8.9134334066400189 -0.0021269584471316  1.7951758963272482
  8.9319828479862675  1.8027090667222425  0.0018368053922397
  7.1353846749198517  0.0071920059181509  3.5749569679549871
  7.1293432436192692  1.7968547089668083  5.3532668128448355
  8.9467937269671651 -0.0190207719199794  5.3581877867545904
  8.9197632489735081  1.7313025695090523  3.5838175073381517
  7.1228035967338288 -0.0170081077991160  7.1531062338187086
  7.1457424353469703  1.7617027912406773  8.9300525066993508
  8.9285699936212115  0.0233278728933603  8.9226024858465962
  8.9398745695780786  1.7758219910771493  7.1547964021799464
  7.1423114631542957  0.0178595474954304 10.7213838650988045
  7.1432783771368467  1.7774343747178702 12.4793781897599132
  8.9352352410292539 -0.0015358145066425 12.4776461562909411
  8.8924147726544032  1.7630054153518027 10.7050899229355245
  7.1414893674936364  3.5652629136509164 -0.0170920435445474
  7.1854957235797219  5.4224949108900296  1.7266000327326099
  8.8743046311598039  3.5108793824987488  1.7364071396246763
  8.9207209128015599  5.3508946195193969 -0.0384479617024049
  7.1879820738596454  3.5099024687980256  3.6285998814692624
  7.1515073944427536  5.3634313198291945  5.3866868720984558
  8.9185613863312785  3.5671851088261795  5.3736918529825548
  8.8796684702407696  5.4239461684792216  3.6280653960755367
  7.1394898075510804  3.5846527401804931  7.1253941017230797
  7.1211458139227783  5.3319147466117025  8.9238082253643096
  8.9232197823828390  3.5609210506476248  8.9467611614442486
  8.9138712140239011  5.3655969228862634  7.1389209734518735
  7.1573586243685883  3.5748769704736234 10.6919969211710164
  7.1481809510354726  5.3507221329996826 12.4889753596509028
  8.9039856530700288  3.5727449813777490 12.5105130769903976
  8.9304572203524959  5.3406113772318129 10.7131660604493248
  7.1359858799211366  7.1498111570300011  0.0085564946097762
  7.1422396603677605  8.9272337917220312  1.8035338386532282
  8.9199716473720976  7.1888953433283929  1.7954040688982433
  8.9256931379274516  8.9265716563068818 -0.0219174715695323
  7.1493573815276621  7.1815525187474520  3.5670988425196613
  7.1304378721693098  8.9253766171649200  5.3821029836798120
  8.9281214841561329  7.1455226865742949  5.3578435706686252
  8.9281466302499464  8.9316887205784958  3.5495362051618273
  7.1218405745789175  7.1478443963582299  7.1279735414890979
  7.0852482165555051  8.9804055335352952  8.8795046570932250
  8.9759312269279992  7.0950363941144809  8.8729714748707149
  8.9419480038647770  8.9515403050519904  7.1197155750872572
  7.0854022362086395  7.0971025354437334 10.7623856070799331
  7.1304983251858625  8.9465941402035920 12.5251705927355772
  8.9452897685552308  7.1445907434557965 12.5068215411910906
  8.9760997987488622  8.9811835954413137 10.7604544216958669
  7.1505225540565318 10.7154083750726663 -0.0113969792181171
  7.1461819803580324 12.4784855641382197  1.7683558495418681
  8.9274034239277942 10.7358954509860069  1.7876831910490871
  8.9190515879692782 12.4850964276689780  0.0111785597834001
  7.1403606148272019 10.7387187863082243  3.5720731830672139
  7.1395776564062707 12.4986160399817869  5.3524405510324780
  8.9209356936552471 10.7166034777849912  5.3622083305138366
  8.9303926807567198 12.4762278633151009  3.5835738328790439
  7.1630669763770021 10.7064246953578248  7.1522780786117073
  7.1491651294350422 12.4813745252024759  8.9223818282797023
  8.9348217079528141 10.7507859779357506  8.9177743352416634
  8.9124503571147891 12.4980384422586219  7.1405876323111395
  7.1323060169407109 10.7550836471696822 10.7196909141861738
  7.1328903889401962 12.5001151296508546 12.4942558229405645
  8.9129569663196548 10.6993659813261122 12.4987047131080615
  8.9276801494359965 12.4949208023970986 10.7007234487253822
 10.7310095908423300 -0.0067276128730849 -0.0039297457694906
 10.7334168292559529  1.7510834254375469  1.7733028985727186
 12.4977089504546672 -0.0038003107678700  1.7837449162091348
 12.4967748318356477  1.7796622665761368  0.0341691343624840
 10.7072612957063793 -0.0018779314090147  3.5794669019022591
 10.7065421236237892  1.7688867170812195  5.3431209815800038
 12.5130416148091594 -0.0127730322966700  5.3666344369158772
 12.5001952384720649  1.7909774681309030  3.5863380963105467
 10.7135563575011403 -0.0002590160079784  7.1440608303796829
 10.7077265465692459  1.7764713436276129  8.8919123815921441
 12.4803728607959297 -0.0037711927542692  8.9357423739117277
 12.5005803632656942  1.7798348803376753  7.1681472042195731
 10.7068939826340301 -0.0285512624293311 10.7136577504856021
 10.6664161107814035  1.7305206015178896 12.5444818468629542
 12.5099288921553118 -0.0335532124832231 12.5033831173246028
 12.5541813542356184  1.7273568258912360 10.6634128912615260
 10.7225056066927138  3.5594003724984007  0.0045513964132917
 10.7596830779891963  5.4150076338655344  1.7370968137918896
 12.5302183204110200  3.5671440498059042  1.7707153954765511
 12.4889776856646648  5.3486963979154343  0.0083128116432226
 10.7580173968900414  3.5168937698227505  3.6255259129680826
 10.7352651904544860  5.3451925121073192  5.3724032218800124
 12.4973519440583534  3.5715809043520999  5.3412040122694942
 12.5387200181391112  5.3723956891301112  3.5821457692094238
 10.7344731984395700  3.5632790133600807  7.1340760646046588
 10.7236214779215029  5.3630349377353150  8.9509270129339118
 12.5155156294501335  3.5693754676760445  8.8967514525088056
 12.4997411149012034  5.3375843589413172  7.1271129487876559
 10.6649655879737413  3.6156658550107137 10.6562306202039672
 10.7120305826060580  5.3936052554944576 12.5031256853470687
 12.5558547009965498  3.6174233915674705 12.5466211431536774
 12.5134535275319330  5.3871926177852734 10.7023962778179751
 10.7095735032398824  7.1432873394576699 -0.0052120438192658
 10.7237844263891642  8.9338966388899443  1.8012507691804529
 12.4970002855292659  7.1467731568210420  1.7923203695161236
 12.5229403591639343  8.9534938842689034 -0.0032799615314511
 10.7334044205008041  7.1812200182929677  3.5766942021355264
 10.7196920670982383  8.9283173251867023  5.3667268451217334
 12.5020274251604260  7.1348914932137903  5.3428874314205883
 12.4891868687926522  8.9240228276692726  3.5749406789184128
 10.7130204916542535  7.1650308101855753  7.1555582328885032
 10.7428101476445086  8.9403027395782750  8.9138471979286482
 12.4869197736482409  7.1534048690192185  8.9300418970881701
 12.5019517289306918  8.9295921093822255  7.1478676316661165
 10.7555303389064196  7.1274120074769032 10.7193272386542340
 10.7145633936843527  8.9499393467794555 12.4867864622365836
 12.5056006573701843  7.1400499008445193 12.4857810121648356
 12.4841391616114112  8.9502577537017487 10.7029528640777940
 10.7255643348641243 10.7235822052820033  0.0074680436370408
 10.7158390340914647 12.4703088401873412  1.7837511349687174
 12.4881898923341961 10.7130878106113219  1.7851346500161220
 12.4977563732642771 12.4956638541748468 -0.0076509671981836
 10.7245606573766654 10.7360943618913236  3.5641053620493981
 10.7238984702984279 12.4969051785021534  5.3443460060505004
 12.5065683906049596 10.7299348287456127  5.3639024218867934
 12.4952494495680568 12.4850226770733226  3.5759369207205833
 10.7025238885206679 10.6967879595930153  7.1362852132150536
 10.7186953699070919 12.5016095358758701  8.9407623053867056
 12.5052541486961353 10.7064391710100111  8.9278921577579364
 12.5161855314455011 12.4989498325423192  7.1312272750355872
 10.7197239804502580 10.6966458310544876 10.6974134989087641
 10.7182039886485434 12.5149664741621436 12.5107881935276435
 12.5119744245700435 10.7080488951104495 12.5139110627017320
 12.4981626473207115 12.5205362970832681 10.7183979156040863
  6.2417315834439613  4.4655849732334714  2.6811536781525191
  9.8252485146702924  4.4667192856364455  2.6815637149490970
  8.0355953300361591  8.0369419866768279  9.8173289988506198
 11.6079783913871371  2.6802286767455508 11.6000393899111405
