Cu  H 
 1.0000000000000000
    15.4648923874000008    0.0000000000000000    0.0000000000000000
     0.0000000000000000   10.9353294373000001    0.0000000000000000
     0.0000000000000000    0.0000000000000000   32.0000000000000000
 Cu  H  
 216   4
Selective dynamics
Cartesian
  0.0000000000000000  0.0000000000000000  0.0000000000000000   F   F   F
 -0.0074686649143884  0.0016669908122399  5.1531453724615144   T   T   T
 -0.0123189326571240 -0.0007891339174039 10.3237961143971315   T   T   T
  0.0000000000000000  3.6451099210000000  0.0000000000000000   F   F   F
 -0.0027231757845037  3.6428039592403678  5.1587700801706413   T   T   T
 -0.0230778494119341  3.6419245097372910 10.3212233658478887   T   T   T
  0.0000000000000000  7.2902198420000000  0.0000000000000000   F   F   F
 -0.0255809320805460  7.2895824971699987  5.1607229777182546   T   T   T
 -0.0059074660569949  7.2960475315414497 10.3131833380090061   T   T   T
  5.1549642830000000  0.0000000000000000  0.0000000000000000   F   F   F
  5.1574421939273485  0.0004657724202475  5.1533081014006470   T   T   T
  5.1603661896882000  0.0000686563573902 10.3197775614594658   T   T   T
  5.1549642830000000  3.6451099210000000  0.0000000000000000   F   F   F
  5.1653264824277203  3.6221562549643873  5.1578482847881029   T   T   T
  5.2396125284511816  3.5938326113672572 10.3241220324558949   T   T   T
  5.1549642830000000  7.2902198420000000  0.0000000000000000   F   F   F
  5.2442159106415343  7.3512425257376242  5.1705223505692581   T   T   T
  5.1713802514655320  7.3243697244871866 10.3273519112646177   T   T   T
 10.3099285660000000  0.0000000000000000  0.0000000000000000   F   F   F
 10.3146931254835490  0.0028331278090954  5.1513248644575080   T   T   T
 10.3183008808469641 -0.0065592032093625 10.3034692768434564   T   T   T
 10.3099285660000000  3.6451099210000000  0.0000000000000000   F   F   F
 10.3118098508326170  3.6447197423056701  5.1540047436192093   T   T   T
 10.3116960847155283  3.6500576800616198 10.3292410562705204   T   T   T
 10.3099285660000000  7.2902198420000000  0.0000000000000000   F   F   F
 10.3140538359431471  7.2890428253270549  5.1529774971600997   T   T   T
 10.3145901685286159  7.3008251177151084 10.3057929903965206   T   T   T
  2.5774821409999999  0.0000000000000000  2.5774821409999999   F   F   F
  2.5688636515842922  0.0046639506819091  7.7418305515678361   T   T   T
  2.5650109700740646 -0.0109973071648565 12.9451861992412933   T   T   T
  2.5774821409999999  3.6451099210000000  2.5774821409999999   F   F   F
  2.5577296627118700  3.6154192008410782  7.7401269922328657   T   T   T
  2.5670884443022781  3.6426363195517979 12.9616759024323027   T   T   T
  2.5774821409999999  7.2902198420000000  2.5774821409999999   F   F   F
  2.5579374086493445  7.3131760675733029  7.7584103296938869   T   T   T
  2.5621575801991390  7.3072444144372755 12.9478783354975278   T   T   T
  7.7324461940000004  0.0000000000000000  2.5774821409999999   F   F   F
  7.7477204618098980  0.0028248826357019  7.7426410114167998   T   T   T
  7.7466006418648901 -0.0096081373062039 13.0075342076182690   T   T   T
  7.7324461940000004  3.6451099210000000  2.5774821409999999   F   F   F
  7.7417648633385019  3.6356008840031198  7.7393324460491213   T   T   T
  7.7125579238077293  3.6695213960285837 12.9087283761873870   T   T   T
  7.7324461940000004  7.2902198420000000  2.5774821409999999   F   F   F
  7.7406032935959228  7.3007765607528547  7.7257627222724565   T   T   T
  7.7424555463103308  7.2876156187515573 12.9197788943381457   T   T   T
 12.8874100160000005  0.0000000000000000  2.5774821409999999   F   F   F
 12.8813334439966845  0.0034501555008404  7.7348324547684664   T   T   T
 12.8992754363916173 -0.0149169199711804 12.9201959149473158   T   T   T
 12.8874100160000005  3.6451099210000000  2.5774821409999999   F   F   F
 12.8851233644513226  3.6438716882235331  7.7376638746583231   T   T   T
 12.8911141819889163  3.6486551267663803 12.9333346711048236   T   T   T
 12.8874100160000005  7.2902198420000000  2.5774821409999999   F   F   F
 12.8869815545804798  7.2888562174168694  7.7314384739006607   T   T   T
 12.8977461574285091  7.2986243318029027 12.9170708054462242   T   T   T
  1.2887410710000000  1.8225549610000000  1.2887410710000000   F   F   F
  1.2777268035058491  1.8098243617977314  6.4486726867038549   T   T   T
  1.2755039513522857  1.8044491918938397 11.6140413011262780   T   T   T
  1.2887410710000000  5.4676647190000001  1.2887410710000000   F   F   F
  1.2667189626418829  5.4565783212882772  6.4629119349482309   T   T   T
  1.2651722762293156  5.4802050119379091 11.6011012212097313   T   T   T
  1.2887410710000000  9.1127743139999993  1.2887410710000000   F   F   F
  1.2700950011569363  9.1352703115352281  6.4615810406560712   T   T   T
  1.2788868759682726  9.1204105900812760 11.6027569641524213   T   T   T
  6.4437050080000002  1.8225549610000000  1.2887410710000000   F   F   F
  6.4552607670176876  1.8095300740375757  6.4456038400501789   T   T   T
  6.4576891403942573  1.8114274712321727 11.6102831552147894   T   T   T
  6.4437050080000002  5.4676647190000001  1.2887410710000000   F   F   F
  6.4647826393121095  5.4576445501642281  6.4584784280028638   T   T   T
  6.4621426497640764  5.4860985798799042 11.5917028413932037   T   T   T
  6.4437050080000002  9.1127743139999993  1.2887410710000000   F   F   F
  6.4617581378508984  9.1358610299110588  6.4589954162023151   T   T   T
  6.4569432284819994  9.1305971627707372 11.6051123123003528   T   T   T
 11.5986692910000002  1.8225549610000000  1.2887410710000000   F   F   F
 11.5988805829847177  1.8254410116480433  6.4470830259416081   T   T   T
 11.5942601096536588  1.8282876803873820 11.5931057305958909   T   T   T
 11.5986692910000002  5.4676647190000001  1.2887410710000000   F   F   F
 11.5994099533052442  5.4646287860750906  6.4466793434218772   T   T   T
 11.5944261846596088  5.4625948244084936 11.5972877688446339   T   T   T
 11.5986692910000002  9.1127743139999993  1.2887410710000000   F   F   F
 11.6001480525537684  9.1138768927073315  6.4422306237470863   T   T   T
 11.6012546140162680  9.1053505431109283 11.5829037791013736   T   T   T
  3.8662230970000002  1.8225549610000000  3.8662230970000002   F   F   F
  3.8677101603686856  1.7993266949679938  9.0303701920642094   T   T   T
  3.8579174124716720  1.8108597991526956 14.0978544521062705   T   T   T
  3.8662230970000002  5.4676647190000001  3.8662230970000002   F   F   F
  3.8660446847373064  5.5234387547132258  8.9926160147809355   T   T   T
  3.8541794518653094  5.4699931616535800 14.1231897207927712   T   T   T
  3.8662230970000002  9.1127743139999993  3.8662230970000002   F   F   F
  3.8640569662585724  9.1254051589926508  9.0303362445563042   T   T   T
  3.8598145874545855  9.1172786853402901 14.1148279130339827   T   T   T
  9.0211869189999998  1.8225549610000000  3.8662230970000002   F   F   F
  9.0315604387080253  1.8197978104228494  9.0174641694067095   T   T   T
  9.0219588435439899  1.8427500288930478 14.1378662915510560   T   T   T
  9.0211869189999998  5.4676647190000001  3.8662230970000002   F   F   F
  9.0282432570629272  5.4727940076541364  9.0103818211789459   T   T   T
  9.0210401903892006  5.4721718844741236 14.0840842790220169   T   T   T
  9.0211869189999998  9.1127743139999993  3.8662230970000002   F   F   F
  9.0272025894237640  9.1179574510732628  9.0189155863818460   T   T   T
  9.0491397078401992  9.0648162025196477 14.0879584136498668   T   T   T
 14.1761516620000005  1.8225549610000000  3.8662230970000002   F   F   F
 14.1638354800574877  1.8197679873190158  9.0284094481279418   T   T   T
 14.1821959531649888  1.8209700435725162 14.0932675957148792   T   T   T
 14.1761516620000005  5.4676647190000001  3.8662230970000002   F   F   F
 14.1708086815567942  5.4676313482688252  9.0219242558882993   T   T   T
 14.1874252731347621  5.4728774321825711 14.0922378030141875   T   T   T
 14.1761516620000005  9.1127743139999993  3.8662230970000002   F   F   F
 14.1694015997003309  9.1141704003273318  9.0218878157765250   T   T   T
 14.1755398945646522  9.1100753135267727 14.1041334246797483   T   T   T
  2.5774821409999999  0.0000000000000000  0.0000000000000000   F   F   F
  2.5740280390448111  0.0004868068579606  5.1549091800003186   T   T   T
  2.5719589283845696 -0.0011647100711843 10.3299691654294854   T   T   T
  2.5774821409999999  3.6451099210000000  0.0000000000000000   F   F   F
  2.5659942911921205  3.6220128770725939  5.1593556237985592   T   T   T
  2.4898103866162726  3.5853025925638144 10.3341556996108022   T   T   T
  2.5774821409999999  7.2902198420000000  0.0000000000000000   F   F   F
  2.4871422739295719  7.3511452509572059  5.1719572576186179   T   T   T
  2.5593729582808624  7.3179161388546383 10.3285556635623834   T   T   T
  7.7324461940000004  0.0000000000000000  0.0000000000000000   F   F   F
  7.7397785755759054  0.0014089968147403  5.1527958321639140   T   T   T
  7.7416611088244993  0.0022200448015876 10.3458945222457750   T   T   T
  7.7324461940000004  3.6451099210000000  0.0000000000000000   F   F   F
  7.7349220087398356  3.6431304662655539  5.1561337406696941   T   T   T
  7.7564161590123568  3.6478800645044100 10.3185719155376319   T   T   T
  7.7324461940000004  7.2902198420000000  0.0000000000000000   F   F   F
  7.7577892647382214  7.2897846721497821  5.1568526082042574   T   T   T
  7.7362635194384426  7.3068838822022322 10.3051400360156507   T   T   T
 12.8874100160000005  0.0000000000000000  0.0000000000000000   F   F   F
 12.8839270340912631  0.0032296483166520  5.1540155037469626   T   T   T
 12.8808346462213628 -0.0003894136269530 10.3173190687688852   T   T   T
 12.8874100160000005  3.6451099210000000  0.0000000000000000   F   F   F
 12.8868801411555207  3.6446892349348068  5.1549954561396154   T   T   T
 12.8827693326560908  3.6466147557517559 10.3184141339053745   T   T   T
 12.8874100160000005  7.2902198420000000  0.0000000000000000   F   F   F
 12.8846469953232212  7.2885602464207029  5.1552095200549459   T   T   T
 12.8855218493684376  7.2862793350271113 10.3124577939119089   T   T   T
  0.0000000000000000  0.0000000000000000  2.5774821409999999   F   F   F
 -0.0157014063008112  0.0039648492765903  7.7379477841053141   T   T   T
 -0.0049444195341660 -0.0064262763818363 12.9359431615270299   T   T   T
  0.0000000000000000  3.6451099210000000  2.5774821409999999   F   F   F
 -0.0094835904368064  3.6332331436614513  7.7428694929514208   T   T   T
 -0.0013047309667474  3.6442300334055555 12.9296136014553600   T   T   T
  0.0000000000000000  7.2902198420000000  2.5774821409999999   F   F   F
 -0.0081059411488414  7.2982532192288661  7.7335312775821787   T   T   T
 -0.0029394791585742  7.2997101468077519 12.9320951113545100   T   T   T
  5.1549642830000000  0.0000000000000000  2.5774821409999999   F   F   F
  5.1624286105108457  0.0043992469246474  7.7372292836261254   T   T   T
  5.1369765697438909 -0.0196636928194397 12.9137762644914567   T   T   T
  5.1549642830000000  3.6451099210000000  2.5774821409999999   F   F   F
  5.1752923840157470  3.6160315661249376  7.7358156805778018   T   T   T
  5.1610336265950725  3.6343610763291045 12.9717409046749328   T   T   T
  5.1549642830000000  7.2902198420000000  2.5774821409999999   F   F   F
  5.1721700554168066  7.3145587349754919  7.7562005416089361   T   T   T
  5.1471354213640863  7.3102367706101941 12.9277084792240551   T   T   T
 10.3099285660000000  0.0000000000000000  2.5774821409999999   F   F   F
 10.3172173818177768  0.0019260144441444  7.7284693841555141   T   T   T
 10.3254620350198394 -0.0035726323009951 12.9067950633812671   T   T   T
 10.3099285660000000  3.6451099210000000  2.5774821409999999   F   F   F
 10.3126247263619426  3.6445166446502251  7.7394576417241536   T   T   T
 10.3246985008133869  3.6356475395432346 12.9580500181181808   T   T   T
 10.3099285660000000  7.2902198420000000  2.5774821409999999   F   F   F
 10.3128509371235459  7.2915182579451567  7.7269726110478496   T   T   T
 10.3156466690251989  7.2796237339644536 12.9171015773194107   T   T   T
  1.2887410710000000  1.8225549610000000  3.8662230970000002   F   F   F
  1.2707171985071903  1.8036755665860287  9.0290083294918624   T   T   T
  1.2820639124805235  1.8122790741597745 14.1092649122680864   T   T   T
  1.2887410710000000  5.4676647190000001  3.8662230970000002   F   F   F
  1.2687659872485191  5.4713674492362028  9.0234445343279646   T   T   T
  1.2813926876064494  5.4757858839214357 14.1025536433738647   T   T   T
  1.2887410710000000  9.1127743139999993  3.8662230970000002   F   F   F
  1.2754094877778821  9.1308384075889784  9.0324211855365117   T   T   T
  1.2807862393728235  9.1127432496699718 14.1170066446633573   T   T   T
  6.4437050080000002  1.8225549610000000  3.8662230970000002   F   F   F
  6.4633068351949259  1.8050527615182739  9.0246963821539232   T   T   T
  6.4170697261839909  1.7953206165389322 14.1364632375860442   T   T   T
  6.4437050080000002  5.4676647190000001  3.8662230970000002   F   F   F
  6.4641902969269056  5.4770462518873968  9.0178484693617929   T   T   T
  6.4123689424474755  5.5074062155297696 14.0890581633582368   T   T   T
  6.4437050080000002  9.1127743139999993  3.8662230970000002   F   F   F
  6.4559693872765624  9.1341360583867797  9.0304171479950206   T   T   T
  6.4323725249517381  9.0685666834492000 14.1031263299575844   T   T   T
 11.5986692910000002  1.8225549610000000  3.8662230970000002   F   F   F
 11.5957589582110732  1.8255291862834704  9.0288465440000056   T   T   T
 11.6335012318086193  1.7840283462639455 14.0828223336754004   T   T   T
 11.5986692910000002  5.4676647190000001  3.8662230970000002   F   F   F
 11.5982538929344479  5.4691893495101107  9.0258044165779161   T   T   T
 11.6332817138711082  5.5023767223086786 14.0925129388390626   T   T   T
 11.5986692910000002  9.1127743139999993  3.8662230970000002   F   F   F
 11.6024899076230970  9.1117763855977891  9.0158146049605588   T   T   T
 11.6030808629417699  9.1094404878141120 14.0893884099845579   T   T   T
  3.8662230970000002  1.8225549610000000  1.2887410710000000   F   F   F
  3.8658417656924509  1.8139673032443342  6.4499210847981496   T   T   T
  3.8671354888896099  1.8051460051263355 11.6099684398360417   T   T   T
  3.8662230970000002  5.4676647190000001  1.2887410710000000   F   F   F
  3.8649998602702587  5.3931632184297715  6.5343663775395679   T   T   T
  3.8624003263953135  5.5374340818045464 11.6682585441489088   T   T   T
  3.8662230970000002  9.1127743139999993  1.2887410710000000   F   F   F
  3.8652593964193227  9.1401086392815500  6.4618159446176984   T   T   T
  3.8587176406140462  9.1132187537190052 11.5969070850715195   T   T   T
  9.0211869189999998  1.8225549610000000  1.2887410710000000   F   F   F
  9.0278382178050656  1.8236400673333879  6.4434808350083399   T   T   T
  9.0318965972490322  1.8109489808527814 11.5755018476350084   T   T   T
  9.0211869189999998  5.4676647190000001  1.2887410710000000   F   F   F
  9.0287339412474985  5.4638426486922924  6.4446460420762213   T   T   T
  9.0332872181492672  5.4897046125978335 11.5606238488263102   T   T   T
  9.0211869189999998  9.1127743139999993  1.2887410710000000   F   F   F
  9.0319935367868940  9.1190854237783050  6.4425566146875717   T   T   T
  9.0270254199250015  9.1199205999870561 11.5911647538998981   T   T   T
 14.1761516620000005  1.8225549610000000  1.2887410710000000   F   F   F
 14.1693774232246845  1.8237499973641276  6.4479867718194264   T   T   T
 14.1665433194239210  1.8201458714163752 11.5947347936831004   T   T   T
 14.1761516620000005  5.4676647190000001  1.2887410710000000   F   F   F
 14.1697221317701452  5.4630101490826251  6.4506544923112070   T   T   T
 14.1691317473719387  5.4714017770848864 11.5892722742192298   T   T   T
 14.1761516620000005  9.1127743139999993  1.2887410710000000   F   F   F
 14.1655582520905732  9.1185746041512576  6.4464222911472060   T   T   T
 14.1736563196166827  9.1103397014146132 11.5897583342351513   T   T   T
  7.7436956170951889  0.8553391704309078 14.6348736699660158   T   T   T
  3.8605476480321927  4.5271222094796402 10.3429413666220764   T   T   T
  3.8657225848660763  6.4294400847730024  5.2399731552508984   T   T   T
  9.0305528467089697  3.6415038167922655 14.2371601231797236   T   T   T
