Cu  H 
 1.0000000000000000
    14.5804395675999992    0.0000000000000000    0.0000000000000000
     0.0000000000000000   14.5804395675999992    0.0000000000000000
     0.0000000000000000    0.0000000000000000   32.0000000000000000
 Cu  H  
 256   4
Selective dynamics
Cartesian
  0.0000000000000000  0.0000000000000000  0.0000000000000000   F   F   F
  0.0000000000000000  0.0000000000000000  3.6451098919999998   F   F   F
 -0.0117115330581611  0.0037615079644076  7.3036002011735874   T   T   T
  0.0224626055838697 -0.0223843870694112 10.9472162159275435   T   T   T
  0.0000000000000000  3.6451098919999998  0.0000000000000000   F   F   F
  0.0000000000000000  3.6451098919999998  3.6451098919999998   F   F   F
 -0.0149530020672185  3.6449103988814051  7.3130057828306132   T   T   T
  0.0007180965608545  3.6441333714157027 10.9665995101301252   T   T   T
  0.0000000000000000  7.2902197839999996  0.0000000000000000   F   F   F
  0.0000000000000000  7.2902197839999996  3.6451098919999998   F   F   F
 -0.0229403291588954  7.2805960739051292  7.3051205411973461   T   T   T
 -0.0110508942755106  7.2907067851733487 10.9620565218275807   T   T   T
  0.0000000000000000 10.9353296760000003  0.0000000000000000   F   F   F
  0.0000000000000000 10.9353296760000003  3.6451098919999998   F   F   F
 -0.0310641084569554 10.9313959465309836  7.3179320931968119   T   T   T
  0.0070227517152011 10.9190243310186776 10.9420745062517017   T   T   T
  3.6451098919999998  0.0000000000000000  0.0000000000000000   F   F   F
  3.6451098919999998  0.0000000000000000  3.6451098919999998   F   F   F
  3.6526151165304359 -0.0033055747530984  7.3167235806604323   T   T   T
  3.6451510834382792 -0.0015470200295378 10.9659435790386972   T   T   T
  3.6451098919999998  3.6451098919999998  0.0000000000000000   F   F   F
  3.6451098919999998  3.6451098919999998  3.6451098919999998   F   F   F
  3.5905305481918459  3.7033541773677485  7.3514826018627923   T   T   T
  3.6479232550091498  3.6458364177245923 10.9674342122996951   T   T   T
  3.6451098919999998  7.2902197839999996  0.0000000000000000   F   F   F
  3.6451098919999998  7.2902197839999996  3.6451098919999998   F   F   F
  3.6448604544481298  7.2605221184458131  7.3256165107987661   T   T   T
  3.6358205088512192  7.3019460446178348 10.9427689215103499   T   T   T
  3.6451098919999998 10.9353296760000003  0.0000000000000000   F   F   F
  3.6451098919999998 10.9353296760000003  3.6451098919999998   F   F   F
  3.6644102325885912 10.9518811629001735  7.3164635008927252   T   T   T
  3.6516462956357163 10.9361062513037410 10.9393199284932763   T   T   T
  7.2902197839999996  0.0000000000000000  0.0000000000000000   F   F   F
  7.2902197839999996  0.0000000000000000  3.6451098919999998   F   F   F
  7.3230625731166068 -0.0043601195841533  7.3157926578344279   T   T   T
  7.3057848434883406  0.0276591529386445 11.0193478543780508   T   T   T
  7.2902197839999996  3.6451098919999998  0.0000000000000000   F   F   F
  7.2902197839999996  3.6451098919999998  3.6451098919999998   F   F   F
  7.3266226033338180  3.6496238790736157  7.3271620540949600   T   T   T
  7.2718914276561213  3.6654444648880906 10.9557965896857041   T   T   T
  7.2902197839999996  7.2902197839999996  0.0000000000000000   F   F   F
  7.2902197839999996  7.2902197839999996  3.6451098919999998   F   F   F
  7.3121680473322828  7.2889948642410509  7.3070567480739319   T   T   T
  7.2843074119215583  7.3131598383448235 10.9530960515528157   T   T   T
  7.2902197839999996 10.9353296760000003  0.0000000000000000   F   F   F
  7.2902197839999996 10.9353296760000003  3.6451098919999998   F   F   F
  7.3077293034048569 10.9462088213647171  7.3042773688274627   T   T   T
  7.3006042770950899 10.9385499692924295 10.9661922885642014   T   T   T
 10.9353296760000003  0.0000000000000000  0.0000000000000000   F   F   F
 10.9353296760000003  0.0000000000000000  3.6451098919999998   F   F   F
 10.9325859712167457  0.0082659542177429  7.3075144729170081   T   T   T
 10.9649581428151937 -0.0384974655150410 10.9690241637989416   T   T   T
 10.9353296760000003  3.6451098919999998  0.0000000000000000   F   F   F
 10.9353296760000003  3.6451098919999998  3.6451098919999998   F   F   F
 10.9272818525345166  3.6382751932362583  7.3153981665785599   T   T   T
 10.9119477564392895  3.6386496047986543 11.0745691033401101   T   T   T
 10.9353296760000003  7.2902197839999996  0.0000000000000000   F   F   F
 10.9353296760000003  7.2902197839999996  3.6451098919999998   F   F   F
 10.9303644909066229  7.2790119534922093  7.3080102043972177   T   T   T
 10.9277874240374544  7.2914107881302979 10.9749261062517327   T   T   T
 10.9353296760000003 10.9353296760000003  0.0000000000000000   F   F   F
 10.9353296760000003 10.9353296760000003  3.6451098919999998   F   F   F
 10.9339381568250147 10.9318746785284020  7.2952970035153557   T   T   T
 10.9369863620135792 10.9369783491438906 10.9690474457366243   T   T   T
  0.0000000000000000  1.8225549459999999  1.8225549459999999   F   F   F
 -0.0023903287900478  1.8229475034019214  5.4781004765970671   T   T   T
 -0.0038738666561124  1.8211920810733522  9.1321033315923916   T   T   T
 -0.0084160468887583  1.8001210860664387 12.7398241821868279   T   T   T
  0.0000000000000000  5.4676648380000001  1.8225549459999999   F   F   F
 -0.0187638946926588  5.4640270587216468  5.4796491379344312   T   T   T
 -0.0215289999487672  5.4638178871032324  9.1410224536402538   T   T   T
  0.0118965314898163  5.4852230409250584 12.7352906808649120   T   T   T
  0.0000000000000000  9.1127747299999999  1.8225549459999999   F   F   F
 -0.0272246656278328  9.1029345121496767  5.4912457387776055   T   T   T
 -0.0175217512037122  9.1024900185753292  9.1263966055841355   T   T   T
  0.0059286399978649  9.1165146748110590 12.7236229755327130   T   T   T
  0.0000000000000000 12.7578846220000006  1.8225549459999999   F   F   F
 -0.0266934695959885 12.7785682217227432  5.4827039689338717   T   T   T
 -0.0003231868130132 12.7532743740386270  9.1202230886286664   T   T   T
  0.0512048191362422 12.7066316440995344 12.7200899000941625   T   T   T
  3.6451098919999998  1.8225549459999999  1.8225549459999999   F   F   F
  3.5944769038143214  1.7753372861817349  5.4391563212064558   T   T   T
  3.6452174234355397  1.8209694907609091  9.1540114243035227   T   T   T
  3.6482571801586037  1.8211515005131382 12.7257620664707360   T   T   T
  3.6451098919999998  5.4676648380000001  1.8225549459999999   F   F   F
  3.6370943470298629  5.4881094034591644  5.4768406253000519   T   T   T
  3.6416438787934631  5.4710321572342648  9.1415653149396565   T   T   T
  3.6399764386231079  5.4830180218614819 12.7240954672089739   T   T   T
  3.6451098919999998  9.1127747299999999  1.8225549459999999   F   F   F
  3.7283318763849911  9.0296598513815329  5.5678614707165082   T   T   T
  3.6494613825343363  9.1123696462932990  9.1091209523421242   T   T   T
  3.6370104103830911  9.1298941454150668 12.7138197667472159   T   T   T
  3.6451098919999998 12.7578846220000006  1.8225549459999999   F   F   F
  3.6582667393450454 12.7843705690603393  5.4921468876934876   T   T   T
  3.6585108811006624 12.7648014126545295  9.1317524620734591   T   T   T
  3.6393341474925927 12.7437325587252062 12.7228332689817307   T   T   T
  7.2902197839999996  1.8225549459999999  1.8225549459999999   F   F   F
  7.3170100382457512  1.8190813638992505  5.4787728458154117   T   T   T
  7.3261673105553067  1.8244109205327586  9.1811952666879613   T   T   T
  7.2466800973130479  1.8213713526613857 12.8612356696357626   T   T   T
  7.2902197839999996  5.4676648380000001  1.8225549459999999   F   F   F
  7.3130014739858966  5.4704057323196977  5.4844593276100131   T   T   T
  7.3031884962323659  5.4758665407441756  9.1382470985596385   T   T   T
  7.2010519871699934  5.5823008244140766 12.7439351802627261   T   T   T
  7.2902197839999996  9.1127747299999999  1.8225549459999999   F   F   F
  7.2919497309361860  9.1107083056548568  5.4777777771947855   T   T   T
  7.3078804207147652  9.1192625653495369  9.1290661692586426   T   T   T
  7.2841180202255460  9.1146485095218974 12.7308875839634723   T   T   T
  7.2902197839999996 12.7578846220000006  1.8225549459999999   F   F   F
  7.3075012761167040 12.7630604037390007  5.4777243681864318   T   T   T
  7.3077306622678426 12.7692328097326282  9.1444718508551919   T   T   T
  7.2814422849995069 12.7486079871890805 12.7398337353213442   T   T   T
 10.9353296760000003  1.8225549459999999  1.8225549459999999   F   F   F
 10.9319743156643518  1.8253440693283440  5.4805972437424852   T   T   T
 10.9378087339076693  1.8221255166604264  9.1590321415716858   T   T   T
 11.1474633055666974  1.6223253949425296 12.8208252834019749   T   T   T
 10.9353296760000003  5.4676648380000001  1.8225549459999999   F   F   F
 10.9315046398702389  5.4604536909843118  5.4792458750858408   T   T   T
 10.9235178251587683  5.4505189608448852  9.1689477219949413   T   T   T
 10.9363169402235965  5.5198690529546885 12.7689689502076771   T   T   T
 10.9353296760000003  9.1127747299999999  1.8225549459999999   F   F   F
 10.9338943656248890  9.1095320496428975  5.4749462868804919   T   T   T
 10.9287482735201014  9.1089968459610109  9.1330504533757644   T   T   T
 10.9338704344597080  9.1157568820613673 12.7392294028811701   T   T   T
 10.9353296760000003 12.7578846220000006  1.8225549459999999   F   F   F
 10.9363150086733363 12.7569290543341243  5.4760622903030791   T   T   T
 10.9378733161717410 12.7524758053863874  9.1267337918177116   T   T   T
 10.9627017121904586 12.7527231545349284 12.7445371047557483   T   T   T
  1.8225549459999999  0.0000000000000000  1.8225549459999999   F   F   F
  1.8103532070630541 -0.0107624492070755  5.4827735591483391   T   T   T
  1.8264801057874125  0.0061349691527112  9.1280453643763622   T   T   T
  1.8234316536816526 -0.0099344330705971 12.7267842448242146   T   T   T
  1.8225549459999999  3.6451098919999998  1.8225549459999999   F   F   F
  1.7991558107313772  3.6563651382932054  5.4762923083361992   T   T   T
  1.8095676650545898  3.6441587411090230  9.1429725942248368   T   T   T
  1.8189939610834793  3.6437328802931215 12.7282800760597929   T   T   T
  1.8225549459999999  7.2902197839999996  1.8225549459999999   F   F   F
  1.8046882856737112  7.2719193840646152  5.4923484010217694   T   T   T
  1.8056866432984491  7.2838842278863805  9.1310583170726751   T   T   T
  1.8269657045821674  7.3036888658839940 12.7206082684320929   T   T   T
  1.8225549459999999 10.9353296760000003  1.8225549459999999   F   F   F
  1.7456695732782075 11.0149449341973700  5.5640123700225086   T   T   T
  1.8235968963988698 10.9321260056625551  9.1084706819570176   T   T   T
  1.8378209701645254 10.9149130107689043 12.7155465646607642   T   T   T
  5.4676648380000001  0.0000000000000000  1.8225549459999999   F   F   F
  5.4902843615751564 -0.0062666678179604  5.4781038091183838   T   T   T
  5.4870781519797527 -0.0045265652185555  9.1549635383374728   T   T   T
  5.4516274587292575 -0.0172615613956276 12.7320279754382000   T   T   T
  5.4676648380000001  3.6451098919999998  1.8225549459999999   F   F   F
  5.5194307944653209  3.6961209430018713  5.4467484060310607   T   T   T
  5.4745663421124329  3.6525188186184536  9.1500157127770443   T   T   T
  5.4518504521236402  3.6753727131011820 12.7302330434640041   T   T   T
  5.4676648380000001  7.2902197839999996  1.8225549459999999   F   F   F
  5.4959250987379127  7.2647662210943329  5.4844387945838182   T   T   T
  5.4774329346660258  7.2935987500180346  9.1313380552823258   T   T   T
  5.4241328875241726  7.3398526369345927 12.7228893586775182   T   T   T
  5.4676648380000001 10.9353296760000003  1.8225549459999999   F   F   F
  5.4937599009943288 10.9477706015984477  5.4925116328755372   T   T   T
  5.4868746577616019 10.9482200311966444  9.1258367721580136   T   T   T
  5.4657100506160932 10.9350436504033990 12.7241461574471941   T   T   T
  9.1127747299999999  0.0000000000000000  1.8225549459999999   F   F   F
  9.1237570948141329  0.0000655934207066  5.4782339536963400   T   T   T
  9.1280495296862085  0.0063390705705404  9.1617279802326301   T   T   T
  9.1303683963415700 -0.0708894881995421 12.7560526129105032   T   T   T
  9.1127747299999999  3.6451098919999998  1.8225549459999999   F   F   F
  9.1159951824778620  3.6444259098211531  5.4795931636603941   T   T   T
  9.1286334694317599  3.6454331163992122  9.1737948425140772   T   T   T
  8.8726821247948813  3.7710543784878170 12.9532863876232529   T   T   T
  9.1127747299999999  7.2902197839999996  1.8225549459999999   F   F   F
  9.1170897121758134  7.2894348183181910  5.4770377613347430   T   T   T
  9.1184983499159848  7.2843679688451672  9.1409417791698129   T   T   T
  9.1015291082217171  7.2968447481389269 12.7525130339112476   T   T   T
  9.1127747299999999 10.9353296760000003  1.8225549459999999   F   F   F
  9.1148565255628693 10.9347418568965242  5.4749892798284634   T   T   T
  9.1214176987739073 10.9368378759054252  9.1315551648281037   T   T   T
  9.1163427861785618 10.9405201771346245 12.7375273970401768   T   T   T
 12.7578846220000006  0.0000000000000000  1.8225549459999999   F   F   F
 12.7494014357576244  0.0087592716510895  5.4782722113167592   T   T   T
 12.7592284980377997 -0.0059739826423438  9.1275339258746975   T   T   T
 12.8575271744636570 -0.1029297604002509 12.7450639885626487   T   T   T
 12.7578846220000006  3.6451098919999998  1.8225549459999999   F   F   F
 12.7535629895732914  3.6402084276997000  5.4809753427117629   T   T   T
 12.7335793844174976  3.6385218474519969  9.1635755773045489   T   T   T
 12.8208839751485613  3.6546726921553718 12.7559655805014636   T   T   T
 12.7578846220000006  7.2902197839999996  1.8225549459999999   F   F   F
 12.7437541169603747  7.2805663866534474  5.4780535694473338   T   T   T
 12.7410591695385982  7.2805421588181529  9.1390444939252227   T   T   T
 12.7652956973436957  7.3044159256756975 12.7403376824514982   T   T   T
 12.7578846220000006 10.9353296760000003  1.8225549459999999   F   F   F
 12.7552116988767921 10.9338757596462894  5.4766306373997278   T   T   T
 12.7466007999914499 10.9263701981335473  9.1248051729745772   T   T   T
 12.7691045796313247 10.9336874866536302 12.7281277145508405   T   T   T
  1.8225549459999999  1.8225549459999999  0.0000000000000000   F   F   F
  1.8225549459999999  1.8225549459999999  3.6451098919999998   F   F   F
  1.8015686678806304  1.8186415756395653  7.3089677102040653   T   T   T
  1.8146129930021651  1.8198756003241037 10.9722038968033004   T   T   T
  1.8225549459999999  5.4676648380000001  0.0000000000000000   F   F   F
  1.8225549459999999  5.4676648380000001  3.6451098919999998   F   F   F
  1.7958192900317056  5.4696959694418696  7.3101963287960237   T   T   T
  1.8162360703868401  5.4698599850024747 10.9650468916227393   T   T   T
  1.8225549459999999  9.1127747299999999  0.0000000000000000   F   F   F
  1.8225549459999999  9.1127747299999999  3.6451098919999998   F   F   F
  1.8085237813000681  9.0975066859145368  7.3165828076230719   T   T   T
  1.8200330125588380  9.1113522220715684 10.9391027098040770   T   T   T
  1.8225549459999999 12.7578846220000006  0.0000000000000000   F   F   F
  1.8225549459999999 12.7578846220000006  3.6451098919999998   F   F   F
  1.8204242636771795 12.7812506599236375  7.3222736599555924   T   T   T
  1.8357737922789008 12.7462329657157607 10.9418330516236253   T   T   T
  5.4676648380000001  1.8225549459999999  0.0000000000000000   F   F   F
  5.4676648380000001  1.8225549459999999  3.6451098919999998   F   F   F
  5.5513778035205519  1.7692914341779342  7.3776990455569846   T   T   T
  5.4894492886211275  1.8233087942266084 10.9873090262659172   T   T   T
  5.4676648380000001  5.4676648380000001  0.0000000000000000   F   F   F
  5.4676648380000001  5.4676648380000001  3.6451098919999998   F   F   F
  5.4883904208479262  5.4784214717788178  7.3185596956054040   T   T   T
  5.4565318415901665  5.4897476629622908 10.9610467803527740   T   T   T
  5.4676648380000001  9.1127747299999999  0.0000000000000000   F   F   F
  5.4676648380000001  9.1127747299999999  3.6451098919999998   F   F   F
  5.5023067352406203  9.1095501489340371  7.3220338540922931   T   T   T
  5.4679943714319936  9.1285896643914501 10.9430007326631049   T   T   T
  5.4676648380000001 12.7578846220000006  0.0000000000000000   F   F   F
  5.4676648380000001 12.7578846220000006  3.6451098919999998   F   F   F
  5.4894079560979314 12.7732742237020833  7.3064463370083201   T   T   T
  5.4770766390676000 12.7580877877027543 10.9616358391025219   T   T   T
  9.1127747299999999  1.8225549459999999  0.0000000000000000   F   F   F
  9.1127747299999999  1.8225549459999999  3.6451098919999998   F   F   F
  9.1201576464826211  1.8244627338898101  7.3202958130606701   T   T   T
  9.1287721422447543  1.8185226437685584 11.0380388205926749   T   T   T
  9.1127747299999999  5.4676648380000001  0.0000000000000000   F   F   F
  9.1127747299999999  5.4676648380000001  3.6451098919999998   F   F   F
  9.1254303546047186  5.4626719196575975  7.3128988453892054   T   T   T
  9.0905068568828362  5.4668647984745178 11.0177694802854855   T   T   T
  9.1127747299999999  9.1127747299999999  0.0000000000000000   F   F   F
  9.1127747299999999  9.1127747299999999  3.6451098919999998   F   F   F
  9.1172395245809117  9.1125332191648969  7.2978662985704199   T   T   T
  9.1163247899279458  9.1122986199263618 10.9731383021146129   T   T   T
  9.1127747299999999 12.7578846220000006  0.0000000000000000   F   F   F
  9.1127747299999999 12.7578846220000006  3.6451098919999998   F   F   F
  9.1236331939529407 12.7619527687978405  7.3058595094626666   T   T   T
  9.1196983271351577 12.7519591460633688 10.9679870800050434   T   T   T
 12.7578846220000006  1.8225549459999999  0.0000000000000000   F   F   F
 12.7578846220000006  1.8225549459999999  3.6451098919999998   F   F   F
 12.7521606769598286  1.8258449588569776  7.3088564778021272   T   T   T
 12.7906679911730574  1.7998662511598074 10.9627338040074171   T   T   T
 12.7578846220000006  5.4676648380000001  0.0000000000000000   F   F   F
 12.7578846220000006  5.4676648380000001  3.6451098919999998   F   F   F
 12.7420889938545319  5.4554022823667365  7.3130680519604736   T   T   T
 12.7431927833531624  5.4610803334397442 10.9916148646992315   T   T   T
 12.7578846220000006  9.1127747299999999  0.0000000000000000   F   F   F
 12.7578846220000006  9.1127747299999999  3.6451098919999998   F   F   F
 12.7395579738259208  9.1015473646189697  7.3029719906969310   T   T   T
 12.7488499753503515  9.1114656370907614 10.9658209714356438   T   T   T
 12.7578846220000006 12.7578846220000006  0.0000000000000000   F   F   F
 12.7578846220000006 12.7578846220000006  3.6451098919999998   F   F   F
 12.7454376567111929 12.7605724092773141  7.2999983328756928   T   T   T
 12.7779328800225507 12.7307773073654342 10.9467422375961618   T   T   T
  2.7372576902957886 10.0202953967754205  4.7131069489689708   T   T   T
 10.0517451978670849  2.7618523520595213 12.3551768923040175   T   T   T
  4.5685133333257699  2.7159966328275797  6.4210281110880123   T   T   T
  0.0000000000000000  0.0000000000000000 13.9666805992268870   T   T   T
