Cr Co Ni  H 
 1.0000000000000000
    14.1120004653999995    0.0000000000000000    0.0000000000000000
     0.0000000000000000   14.1120004653999995    0.0000000000000000
     0.0000000000000000    0.0000000000000000   32.0000000000000000
 Cr  Co  Ni  H  
  85  85  86   4
Selective dynamics
Cartesian
  1.7640000579999999  1.7640000579999999  3.5280001159999999   F   F   F
 10.5840003490000001  1.7640000579999999  1.7640000579999999   F   F   F
  7.9795109752661562  1.3920310374120859 13.9308125160355125   T   T   T
  0.0000000000000000  3.5280001159999999  0.0000000000000000   F   F   F
 10.8468618855435182  2.0966108576567728 14.6103108052977326   T   T   T
 10.5840003490000001  8.8200002909999995  5.2920001750000001   F   F   F
  0.0000000000000000  3.5280001159999999  3.5280001159999999   F   F   F
 12.6978208734764699  4.0957874395015521 10.2464066702609617   T   T   T
  1.7640000579999999  0.0000000000000000  1.7640000579999999   F   F   F
  7.2211137958952145  6.9521320205277917  7.4288994164019009   T   T   T
 12.2053255843240880  9.4827356964525364 12.3046373620827403   T   T   T
 -0.3922473918657547  9.0177943266681932  9.8788381190784413   T   T   T
  8.8200002909999995  5.2920001750000001  3.5280001159999999   F   F   F
 12.3124286863456422 12.6040208548888604  7.2551009770926873   T   T   T
  7.0560002329999998  5.2920001750000001  5.2920001750000001   F   F   F
  0.0000000000000000  1.7640000579999999  1.7640000579999999   F   F   F
 12.3480004070000007  1.7640000579999999  3.5280001159999999   F   F   F
  6.7498573573726430  5.5079513713786525 13.5331931649965380   T   T   T
 12.3267305965931637  5.7837771339235502  7.8916924773152068   T   T   T
  3.6983320582263941 11.1985244613026484 11.7053493804237156   T   T   T
  3.5280001159999999  8.8200002909999995  1.7640000579999999   F   F   F
  5.8594737811826354 12.6347071060647647  7.5378695140250134   T   T   T
  1.7640000579999999  8.8200002909999995  3.5280001159999999   F   F   F
  3.5280001159999999  5.2920001750000001  5.2920001750000001   F   F   F
  3.5734875721543076 -0.0122958160560271  7.3610534833471553   T   T   T
 12.1705418154305089  7.5250080230727896 14.3738121439285784   T   T   T
  5.2920001750000001  5.2920001750000001  0.0000000000000000   F   F   F
  7.0560002329999998 10.5840003490000001  3.5280001159999999   F   F   F
  9.2653379101970099  6.7228121796585150 13.9523274267618422   T   T   T
  4.9975642244614624  7.6507780240371144 14.1912828361375922   T   T   T
  7.0560002329999998  8.8200002909999995  1.7640000579999999   F   F   F
  3.8199234281853025  7.0334040828120168 11.6372983669528924   T   T   T
  3.1705988929896383  7.0162471305735421  7.6405998812439799   T   T   T
 10.5092663205126531 10.5989840415948411  7.4537061648853058   T   T   T
  8.8200002909999995  0.0000000000000000  1.7640000579999999   F   F   F
  8.5671101402141012 12.9890416623109015 12.2180535707940177   T   T   T
  3.9423475860724473  0.0593330581417784 11.4345165449391395   T   T   T
  3.5280001159999999  8.8200002909999995  5.2920001750000001   F   F   F
  1.3725644188774215  5.4667024291893078 11.8647581704949694   T   T   T
  7.0560002329999998  1.7640000579999999  5.2920001750000001   F   F   F
  3.7982295100848633  5.0297069530319964 13.8001315190833491   T   T   T
  8.8200002909999995  3.5280001159999999  5.2920001750000001   F   F   F
 10.8341662517764359  8.6073500237388387  9.6246411355248522   T   T   T
 -0.3355893466920984 -0.0857005717936017 11.6924746598875018   T   T   T
 12.0892421101327159 -0.1428360356511608  9.4650406203788151   T   T   T
  7.5309050463543992 10.4856029786926683 11.5037035027686887   T   T   T
  1.9217259477254138 10.5854283836253433  9.5895997618255464   T   T   T
  9.1056235503258627  3.6692956132619856  9.5401192343667311   T   T   T
  3.5280001159999999 12.3480004070000007  1.7640000579999999   F   F   F
  3.5280001159999999  1.7640000579999999  1.7640000579999999   F   F   F
 -0.2065254116906907 10.4709977303118027  7.5075299995230544   T   T   T
 10.5840003490000001  7.0560002329999998  3.5280001159999999   F   F   F
 10.4641518732421535  4.3835467279618596 12.1250353165254126   T   T   T
 12.0712780161578976  2.0634434111010784 12.0647916554348402   T   T   T
  0.0000000000000000  5.2920001750000001  1.7640000579999999   F   F   F
  7.0560002329999998  8.8200002909999995  5.2920001750000001   F   F   F
  7.0560002329999998  3.5280001159999999  3.5280001159999999   F   F   F
  5.2920001750000001  7.0560002329999998  5.2920001750000001   F   F   F
  3.2913629791024590  1.9671436683754155 13.6452980261026280   T   T   T
  5.2920001750000001  8.8200002909999995  3.5280001159999999   F   F   F
  3.5280001159999999  0.0000000000000000  0.0000000000000000   F   F   F
  0.3409549516488389  7.3437736327012182  7.6167517364979442   T   T   T
 10.5840003490000001  3.5280001159999999  0.0000000000000000   F   F   F
 12.3480004070000007  7.0560002329999998  5.2920001750000001   F   F   F
 12.3480004070000007  8.8200002909999995  3.5280001159999999   F   F   F
  1.7640000579999999  7.0560002329999998  1.7640000579999999   F   F   F
  5.2920001750000001  1.7640000579999999  3.5280001159999999   F   F   F
  0.0000000000000000  7.0560002329999998  3.5280001159999999   F   F   F
 10.5840003490000001  1.7640000579999999  5.2920001750000001   F   F   F
  1.7640000579999999  5.2920001750000001  3.5280001159999999   F   F   F
  0.0000000000000000  0.0000000000000000  3.5280001159999999   F   F   F
  3.8169063901079339 10.8570439542314112  7.5841106047976430   T   T   T
  3.1968508004004015  5.0867876881599710  9.5653270487265232   T   T   T
  0.0000000000000000  1.7640000579999999  5.2920001750000001   F   F   F
 -0.4605047341139557  3.4512042997146009  7.6668864644500836   T   T   T
  1.7898904283450217  1.9929701206012249  7.4988521028968096   T   T   T
  9.8990327070090611 12.3500053030546386  9.5967828981415160   T   T   T
  7.0560002329999998 10.5840003490000001  0.0000000000000000   F   F   F
  5.2920001750000001 10.5840003490000001  5.2920001750000001   F   F   F
  0.0000000000000000  5.2920001750000001  5.2920001750000001   F   F   F
  0.0000000000000000  8.8200002909999995  5.2920001750000001   F   F   F
  3.5280001159999999  3.5280001159999999  3.5280001159999999   F   F   F
  1.7640000579999999  3.5280001159999999  1.7640000579999999   F   F   F
 12.3480004070000007 10.5840003490000001  5.2920001750000001   F   F   F
  3.5280001159999999  7.0560002329999998  3.5280001159999999   F   F   F
  8.8200002909999995  8.8200002909999995  0.0000000000000000   F   F   F
 12.1391441616669287 12.0766760446056107 11.4632772709473834   T   T   T
  3.5280001159999999 10.5840003490000001  0.0000000000000000   F   F   F
 10.5840003490000001 10.5840003490000001  3.5280001159999999   F   F   F
  7.3452977977203435  8.7267390383556531 13.4908833349634314   T   T   T
  1.6606192858289117  4.9260322915938586  7.2363227938270320   T   T   T
  8.8200002909999995  0.0000000000000000  5.2920001750000001   F   F   F
  8.8200002909999995 10.5840003490000001  5.2920001750000001   F   F   F
  1.8552460672408366  7.6657753028500712  9.9059294290540869   T   T   T
  5.2920001750000001  8.8200002909999995  0.0000000000000000   F   F   F
  0.0000000000000000  7.0560002329999998  0.0000000000000000   F   F   F
 -0.0029430028167891 12.3367605758188059  9.4475244033593668   T   T   T
 10.5840003490000001  5.2920001750000001  5.2920001750000001   F   F   F
  1.7640000579999999  0.0000000000000000  5.2920001750000001   F   F   F
 10.5840003490000001  0.0000000000000000  3.5280001159999999   F   F   F
  2.0296952079350143  9.0744245151713674 11.8741645815905859   T   T   T
  3.5280001159999999  5.2920001750000001  1.7640000579999999   F   F   F
  5.2920001750000001 12.3480004070000007  3.5280001159999999   F   F   F
  8.7876626504170741  3.9621126185627897 14.0663218113819060   T   T   T
  3.5280001159999999  7.0560002329999998  0.0000000000000000   F   F   F
 10.7288782851724207 -0.0574019639640928 11.5848133559794828   T   T   T
  5.2920001750000001  3.5280001159999999  5.2920001750000001   F   F   F
  1.7640000579999999  3.5280001159999999  5.2920001750000001   F   F   F
  7.0357432728126010  0.7565714751687141 11.2738822513742853   T   T   T
  8.8200002909999995  7.0560002329999998  5.2920001750000001   F   F   F
  8.8200002909999995  5.2920001750000001  0.0000000000000000   F   F   F
  8.8200002909999995  3.5280001159999999  1.7640000579999999   F   F   F
 10.2442398631859177  7.0227186719387307  7.2472763378046627   T   T   T
  9.9509955124086122  9.3088553282341913 13.7013879966298973   T   T   T
  1.7640000579999999  1.7640000579999999  0.0000000000000000   F   F   F
  5.2383329044118137  5.3720896207475946  7.3223520352582758   T   T   T
  7.0560002329999998  0.0000000000000000  3.5280001159999999   F   F   F
  9.0809746236856626  0.6943665340614146  9.6116863350968753   T   T   T
 12.3480004070000007 10.5840003490000001  1.7640000579999999   F   F   F
  1.7640000579999999 12.3480004070000007  3.5280001159999999   F   F   F
 12.3480004070000007 12.3480004070000007  3.5280001159999999   F   F   F
  2.1456471952431553  7.4221258026434036 13.7579244230023594   T   T   T
  0.0571431527074366  1.3667015708981591 13.7773923878837437   T   T   T
 10.9111001369289600  3.6228643084153598  7.3105725815027247   T   T   T
  8.8200002909999995  1.7640000579999999  3.5280001159999999   F   F   F
  5.2920001750000001  1.7640000579999999  0.0000000000000000   F   F   F
  5.3896325437585055  4.9010805111683160 11.2738998834103707   T   T   T
  5.2302641741331124  2.3975710907107994 11.2626590966034197   T   T   T
 10.5840003490000001  7.0560002329999998  0.0000000000000000   F   F   F
  5.2322587824122122  8.5757275893116418  7.4111427182713072   T   T   T
 11.1010179778720612  2.1441123742093429  9.4116242634012881   T   T   T
 10.5840003490000001  3.5280001159999999  3.5280001159999999   F   F   F
  3.5280001159999999  3.5280001159999999  0.0000000000000000   F   F   F
  8.8200002909999995  1.7640000579999999  0.0000000000000000   F   F   F
 11.1666572996780822  4.9669047745198958 14.6222802838630539   T   T   T
  6.9504024907245539  3.7234961746288282  7.3378489993067761   T   T   T
  7.0560002329999998  5.2920001750000001  1.7640000579999999   F   F   F
  5.5500675538196127 11.0316444835744516  9.7313042588928020   T   T   T
  0.3544601274960565  3.0541736123955090 12.0090034569110724   T   T   T
  8.4623892899128510  5.7981061906016693 11.3446154457577517   T   T   T
  7.0560002329999998  0.0000000000000000  0.0000000000000000   F   F   F
  3.5280001159999999  0.0000000000000000  3.5280001159999999   F   F   F
  6.5685962585084336  7.2276751812894942 11.4224605164327659   T   T   T
 11.9805424714872082 -0.2287525273589453 13.7055123367242420   T   T   T
  1.7539428923165903  1.3515024649476617 11.2601052688078340   T   T   T
 12.1635297236913811  1.4406594526333927  7.3150237041962258   T   T   T
  8.8200002909999995 12.3480004070000007  0.0000000000000000   F   F   F
  0.0000000000000000 12.3480004070000007  5.2920001750000001   F   F   F
 10.3755216977495035  5.9124853914113045  9.6733049437014387   T   T   T
  1.7640000579999999  5.2920001750000001  0.0000000000000000   F   F   F
  1.7640000579999999  7.0560002329999998  5.2920001750000001   F   F   F
  5.2920001750000001  0.0000000000000000  1.7640000579999999   F   F   F
 10.5840003490000001  0.0000000000000000  0.0000000000000000   F   F   F
  0.0171036897345165  7.6271424545879061 12.1756367020546836   T   T   T
  7.0638759369024804  5.2500703317484128  9.4366270548925133   T   T   T
  1.7640000579999999 10.5840003490000001  5.2920001750000001   F   F   F
  5.2944230620488986  9.2147559756568569 11.8158021055580580   T   T   T
  1.7640000579999999  8.8200002909999995  0.0000000000000000   F   F   F
  8.8200002909999995  8.8200002909999995  3.5280001159999999   F   F   F
 12.3480004070000007  5.2920001750000001  0.0000000000000000   F   F   F
  4.0075805213672648  8.9769916947935933  9.7081516737410674   T   T   T
  1.6000469183578787 12.3135394152110926  7.2453326784324501   T   T   T
  8.8200002909999995  7.0560002329999998  1.7640000579999999   F   F   F
  0.3337950169393435  9.3686189757889746 13.8503538152101395   T   T   T
  7.6475695280419496  0.2544368496984867  7.6444575898930793   T   T   T
 10.7316360676766269 11.7343890025111115 13.3641592372681988   T   T   T
  9.3334318632903397  1.9562238893591584 11.6177555221721409   T   T   T
  6.5453391868055988  8.8417396415225316  9.4930460804622747   T   T   T
  1.7640000579999999 12.3480004070000007  0.0000000000000000   F   F   F
  5.9706400161525037 12.5994530065760664 11.7526583225456207   T   T   T
 12.1227501561579558 10.9353028474727143  9.3909329861735777   T   T   T
  0.2364346086790619  5.9240267135056657 14.3792907978146616   T   T   T
  1.3740321751075899  3.3150617279017509  9.7545851424225543   T   T   T
  8.7716049078900777  8.8751322688028758  7.1804791645156536   T   T   T
 -0.2967139867198811  1.6443066178531041  9.5906161322280958   T   T   T
  0.0000000000000000  8.8200002909999995  1.7640000579999999   F   F   F
  1.7640000579999999 10.5840003490000001  1.7640000579999999   F   F   F
 12.8210237085389487  5.4601216119959473 12.5548236305320806   T   T   T
 12.3480004070000007  5.2920001750000001  3.5280001159999999   F   F   F
  8.8200002909999995 12.3480004070000007  3.5280001159999999   F   F   F
 10.1063424362706638 10.5121789546965339 11.3206475390860408   T   T   T
  3.6997973796874071  3.5504767830726038  7.1220299268792129   T   T   T
  7.0751250743619387  2.1491179525546453  9.3126316933435156   T   T   T
 10.5840003490000001  8.8200002909999995  1.7640000579999999   F   F   F
  5.2920001750000001  0.0000000000000000  5.2920001750000001   F   F   F
 12.0391202632257617 10.2145469377001756 14.8762678237697088   T   T   T
  1.9544576435416872 -0.2452924553022937 13.3686234535403923   T   T   T
  5.7644647423832769 10.7766139846094138 13.6849015992508463   T   T   T
  0.2455126244819360 10.8287031126819926 11.6256364057606607   T   T   T
  1.4207194620209722  3.7844296161495361 14.0477628428493375   T   T   T
  6.8340168145764109 10.3300503374639181  7.4127906111295880   T   T   T
 12.3480004070000007  7.0560002329999998  1.7640000579999999   F   F   F
  0.0000000000000000  0.0000000000000000  0.0000000000000000   F   F   F
  7.0560002329999998 12.3480004070000007  1.7640000579999999   F   F   F
  5.2920001750000001  3.5280001159999999  1.7640000579999999   F   F   F
  9.0489256826264945  2.1508290946029192  7.4197703588254420   T   T   T
  5.8475647125630843  3.0784770063653566 13.5390337602179702   T   T   T
  8.9159041814734028  8.2850675013360693 11.6781679288861842   T   T   T
  8.5427704759897178 12.1970039583510186  7.2840962273115180   T   T   T
  7.3875171269756539 12.7278414131547599  9.7103839560034135   T   T   T
  0.0000000000000000 12.3480004070000007  1.7640000579999999   F   F   F
  3.4553548536403080  9.6792272903319603 13.8547696038058117   T   T   T
  5.3965199545515068  1.7474449130916767  7.2909801914030705   T   T   T
 12.3480004070000007  1.7640000579999999  0.0000000000000000   F   F   F
  7.4427416102801995  3.5412119057998699 11.5598995145632699   T   T   T
  0.0912255139490177  0.1144646776595992  7.2652377520529257   T   T   T
  5.2920001750000001  5.2920001750000001  3.5280001159999999   F   F   F
 12.3480004070000007  0.0000000000000000  5.2920001750000001   F   F   F
 10.5840003490000001 10.5840003490000001  0.0000000000000000   F   F   F
 -0.7034280260665131 11.8473177056400925 13.6733069841042489   T   T   T
  3.0690403104542425  3.4817006978337264 11.5906060437904443   T   T   T
  5.2920001750000001  7.0560002329999998  1.7640000579999999   F   F   F
  7.0560002329999998  1.7640000579999999  1.7640000579999999   F   F   F
  6.8555596357220834 12.9995438196673643 14.3081957807723796   T   T   T
 12.3480004070000007  8.8200002909999995  0.0000000000000000   F   F   F
 13.0945511968103485  3.5702204000440467 14.0918380345489123   T   T   T
 12.3480004070000007 12.3480004070000007  0.0000000000000000   F   F   F
  0.0000000000000000 10.5840003490000001  0.0000000000000000   F   F   F
 10.5840003490000001  5.2920001750000001  1.7640000579999999   F   F   F
  7.0560002329999998  7.0560002329999998  3.5280001159999999   F   F   F
  8.5604003413450549  7.4688859895316080  9.4092874809720133   T   T   T
  5.4849265520676003  0.2311317753578662  9.3890314849888217   T   T   T
 12.3480004070000007  0.0000000000000000  1.7640000579999999   F   F   F
 10.9704334757393180  7.0288677492621012 11.9370316498555855   T   T   T
  0.5754015560097265  5.5638365992044498  9.3445644652561874   T   T   T
 10.5840003490000001 12.3480004070000007  5.2920001750000001   F   F   F
  8.9456920784839689  5.0578683471569326  7.3212150021153937   T   T   T
  3.5280001159999999 12.3480004070000007  5.2920001750000001   F   F   F
  5.2920001750000001 10.5840003490000001  1.7640000579999999   F   F   F
  4.1800184659287059 12.7171579020532075 13.8172418289411247   T   T   T
  8.5689736485812986 10.2107641691379065  9.2124692826715844   T   T   T
  5.1957165246331813  3.6344222000079460  9.0980674441191667   T   T   T
  7.0560002329999998  7.0560002329999998  0.0000000000000000   F   F   F
 12.7265915425479914  6.7140735446453474 10.3095513106066488   T   T   T
  5.5550975946387515  0.6243096274424562 13.2959207957982173   T   T   T
  3.5280001159999999  1.7640000579999999  5.2920001750000001   F   F   F
  1.8979659904754500  9.2236238123928391  7.3271998745340987   T   T   T
  3.5192297809606172  1.8438399713143916  9.4581870647910353   T   T   T
  1.6581911702730667 -0.0038785990924970  9.2148725311812960   T   T   T
  7.0560002329999998  3.5280001159999999  0.0000000000000000   F   F   F
  7.0560002329999998 12.3480004070000007  5.2920001750000001   F   F   F
 10.2224436326719328 -0.0407971996285602  7.3949611117013738   T   T   T
  5.2920001750000001 12.3480004070000007  0.0000000000000000   F   F   F
  3.6546337692151196 12.5872072311314440  9.4342021526997115   T   T   T
  3.5280001159999999 10.5840003490000001  3.5280001159999999   F   F   F
  8.8200002909999995 10.5840003490000001  1.7640000579999999   F   F   F
  5.1833736500201910  6.8002847968616011  9.3482151813617769   T   T   T
  0.0000000000000000 10.5840003490000001  3.5280001159999999   F   F   F
 12.3480004070000007  3.5280001159999999  1.7640000579999999   F   F   F
  1.7984143667019263 11.4368570191926420 13.5465388759373635   T   T   T
  1.7467391269989871 12.7222430055587381 11.2078795263945512   T   T   T
 12.1803855192357737  8.5560899331663354  7.3458075584349114   T   T   T
 10.5840003490000001 12.3480004070000007  1.7640000579999999   F   F   F
 12.3480004070000007  3.5280001159999999  5.2920001750000001   F   F   F
  8.3167542750035306 11.0843274267879384 14.0915284834450425   T   T   T
  9.4788950399944429 -0.7644131502064885 14.7027979660143160   T   T   T
  7.1758945179013667  3.4368732804747228 14.5390394296423899   T   T   T
  7.2201107688771744  1.9643229166171947  7.3829711893753531   T   T   T
  9.4746065926671790  2.6202875749944932 13.2549869573218277   T   T   T
  3.5120351359526034  8.8646747916590716  7.1322518120858343   T   T   T
